c beta(F) <= 0 encoding by deterministic prefix balance
c input connected-switch.cnf
c input_sha256 83fe2bf036979a45aaea5f186feaa05a44eb67a1b44883d9c1fae9e4f2c947b3
p cnf 2686 65061
1 2 3 0
-1 -2 0
-1 -3 0
-2 -3 0
4 5 6 0
-4 -5 0
-4 -6 0
-5 -6 0
7 8 9 0
-7 -8 0
-7 -9 0
-8 -9 0
10 11 12 0
-10 -11 0
-10 -12 0
-11 -12 0
13 14 15 0
-13 -14 0
-13 -15 0
-14 -15 0
16 17 18 0
-16 -17 0
-16 -18 0
-17 -18 0
19 20 21 0
-19 -20 0
-19 -21 0
-20 -21 0
22 23 24 0
-22 -23 0
-22 -24 0
-23 -24 0
25 26 27 0
-25 -26 0
-25 -27 0
-26 -27 0
28 29 30 0
-28 -29 0
-28 -30 0
-29 -30 0
31 32 33 0
-31 -32 0
-31 -33 0
-32 -33 0
34 35 36 0
-34 -35 0
-34 -36 0
-35 -36 0
37 38 39 0
-37 -38 0
-37 -39 0
-38 -39 0
40 41 42 0
-40 -41 0
-40 -42 0
-41 -42 0
43 44 45 0
-43 -44 0
-43 -45 0
-44 -45 0
46 47 48 0
-46 -47 0
-46 -48 0
-47 -48 0
49 50 51 0
-49 -50 0
-49 -51 0
-50 -51 0
52 53 54 0
-52 -53 0
-52 -54 0
-53 -54 0
55 56 57 0
-55 -56 0
-55 -57 0
-56 -57 0
58 59 60 0
-58 -59 0
-58 -60 0
-59 -60 0
61 62 63 0
-61 -62 0
-61 -63 0
-62 -63 0
64 65 66 0
-64 -65 0
-64 -66 0
-65 -66 0
67 68 69 0
-67 -68 0
-67 -69 0
-68 -69 0
70 71 72 0
-70 -71 0
-70 -72 0
-71 -72 0
73 74 75 0
-73 -74 0
-73 -75 0
-74 -75 0
76 77 78 0
-76 -77 0
-76 -78 0
-77 -78 0
79 80 81 0
-79 -80 0
-79 -81 0
-80 -81 0
82 83 84 0
-82 -83 0
-82 -84 0
-83 -84 0
85 86 87 0
-85 -86 0
-85 -87 0
-86 -87 0
88 89 90 0
-88 -89 0
-88 -90 0
-89 -90 0
-91 -26 0
-91 -31 0
-91 -47 0
91 26 31 47 0
-92 -10 0
-92 -28 0
-92 -37 0
92 10 28 37 0
-93 -2 0
-93 -25 0
-93 -40 0
93 2 25 40 0
-94 -5 0
-94 -17 0
-94 -41 0
94 5 17 41 0
-95 -13 0
-95 -16 0
-95 -44 0
95 13 16 44 0
-96 -5 0
-96 -7 0
-96 -44 0
96 5 7 44 0
-97 -8 0
-97 -14 0
-97 -25 0
97 8 14 25 0
-98 -16 0
-98 -34 0
-98 -43 0
98 16 34 43 0
-99 -1 0
-99 -14 0
-99 -31 0
99 1 14 31 0
-100 -11 0
-100 -19 0
-100 -43 0
100 11 19 43 0
-101 -4 0
-101 -23 0
-101 -34 0
101 4 23 34 0
-102 -8 0
-102 -26 0
-102 -32 0
102 8 26 32 0
-103 -10 0
-103 -22 0
-103 -29 0
103 10 22 29 0
-104 -20 0
-104 -22 0
-104 -38 0
104 20 22 38 0
-105 -11 0
-105 -20 0
-105 -37 0
105 11 20 37 0
-106 -4 0
-106 -19 0
-106 -41 0
106 4 19 41 0
-107 -7 0
-107 -32 0
-107 -40 0
107 7 32 40 0
-108 -23 0
-108 -29 0
-108 -35 0
108 23 29 35 0
-109 -28 0
-109 -35 0
-109 -38 0
109 28 35 38 0
-110 -1 0
-110 -13 0
-110 -17 0
110 1 13 17 0
-111 -2 0
-111 -71 0
-111 -76 0
111 2 71 76 0
-112 -55 0
-112 -73 0
-112 -82 0
112 55 73 82 0
-113 -47 0
-113 -70 0
-113 -85 0
113 47 70 85 0
-114 -50 0
-114 -62 0
-114 -86 0
114 50 62 86 0
-115 -58 0
-115 -61 0
-115 -89 0
115 58 61 89 0
-116 -50 0
-116 -52 0
-116 -89 0
116 50 52 89 0
-117 -53 0
-117 -59 0
-117 -70 0
117 53 59 70 0
-118 -61 0
-118 -79 0
-118 -88 0
118 61 79 88 0
-119 -46 0
-119 -59 0
-119 -76 0
119 46 59 76 0
-120 -56 0
-120 -64 0
-120 -88 0
120 56 64 88 0
-121 -49 0
-121 -68 0
-121 -79 0
121 49 68 79 0
-122 -53 0
-122 -71 0
-122 -77 0
122 53 71 77 0
-123 -55 0
-123 -67 0
-123 -74 0
123 55 67 74 0
-124 -65 0
-124 -67 0
-124 -83 0
124 65 67 83 0
-125 -56 0
-125 -65 0
-125 -82 0
125 56 65 82 0
-126 -49 0
-126 -64 0
-126 -86 0
126 49 64 86 0
-127 -52 0
-127 -77 0
-127 -85 0
127 52 77 85 0
-128 -68 0
-128 -74 0
-128 -80 0
128 68 74 80 0
-129 -73 0
-129 -80 0
-129 -83 0
129 73 80 83 0
-130 -46 0
-130 -58 0
-130 -62 0
130 46 58 62 0
-3 93 111 0
-3 99 110 0
-6 94 96 0
-6 101 106 0
-9 97 102 0
-9 96 107 0
-12 100 105 0
-12 92 103 0
-15 97 99 0
-15 95 110 0
-18 94 110 0
-18 95 98 0
-21 104 105 0
-21 100 106 0
-24 101 108 0
-24 103 104 0
-27 91 102 0
-27 93 97 0
-30 103 108 0
-30 92 109 0
-33 102 107 0
-33 91 99 0
-36 108 109 0
-36 98 101 0
-39 104 109 0
-39 92 105 0
-42 94 106 0
-42 93 107 0
-45 95 96 0
-45 98 100 0
-48 91 113 0
-48 119 130 0
-51 114 116 0
-51 121 126 0
-54 117 122 0
-54 116 127 0
-57 120 125 0
-57 112 123 0
-60 117 119 0
-60 115 130 0
-63 114 130 0
-63 115 118 0
-66 124 125 0
-66 120 126 0
-69 121 128 0
-69 123 124 0
-72 111 122 0
-72 113 117 0
-75 123 128 0
-75 112 129 0
-78 122 127 0
-78 111 119 0
-81 128 129 0
-81 118 121 0
-84 124 129 0
-84 112 125 0
-87 114 126 0
-87 113 127 0
-90 115 116 0
-90 118 120 0
131 0
132 133 0
-132 -133 0
-131 91 132 0
-131 -91 133 0
134 135 136 0
-134 -135 0
-134 -136 0
-135 -136 0
-132 92 134 0
-132 -92 135 0
-133 92 135 0
-133 -92 136 0
137 138 139 140 0
-137 -138 0
-137 -139 0
-137 -140 0
-138 -139 0
-138 -140 0
-139 -140 0
-134 93 137 0
-134 -93 138 0
-135 93 138 0
-135 -93 139 0
-136 93 139 0
-136 -93 140 0
141 142 143 144 145 0
-141 -142 0
-141 -143 0
-141 -144 0
-141 -145 0
-142 -143 0
-142 -144 0
-142 -145 0
-143 -144 0
-143 -145 0
-144 -145 0
-137 94 141 0
-137 -94 142 0
-138 94 142 0
-138 -94 143 0
-139 94 143 0
-139 -94 144 0
-140 94 144 0
-140 -94 145 0
146 147 148 149 150 151 0
-146 -147 0
-146 -148 0
-146 -149 0
-146 -150 0
-146 -151 0
-147 -148 0
-147 -149 0
-147 -150 0
-147 -151 0
-148 -149 0
-148 -150 0
-148 -151 0
-149 -150 0
-149 -151 0
-150 -151 0
-141 95 146 0
-141 -95 147 0
-142 95 147 0
-142 -95 148 0
-143 95 148 0
-143 -95 149 0
-144 95 149 0
-144 -95 150 0
-145 95 150 0
-145 -95 151 0
152 153 154 155 156 157 158 0
-152 -153 0
-152 -154 0
-152 -155 0
-152 -156 0
-152 -157 0
-152 -158 0
-153 -154 0
-153 -155 0
-153 -156 0
-153 -157 0
-153 -158 0
-154 -155 0
-154 -156 0
-154 -157 0
-154 -158 0
-155 -156 0
-155 -157 0
-155 -158 0
-156 -157 0
-156 -158 0
-157 -158 0
-146 96 152 0
-146 -96 153 0
-147 96 153 0
-147 -96 154 0
-148 96 154 0
-148 -96 155 0
-149 96 155 0
-149 -96 156 0
-150 96 156 0
-150 -96 157 0
-151 96 157 0
-151 -96 158 0
159 160 161 162 163 164 165 166 0
-159 -160 0
-159 -161 0
-159 -162 0
-159 -163 0
-159 -164 0
-159 -165 0
-159 -166 0
-160 -161 0
-160 -162 0
-160 -163 0
-160 -164 0
-160 -165 0
-160 -166 0
-161 -162 0
-161 -163 0
-161 -164 0
-161 -165 0
-161 -166 0
-162 -163 0
-162 -164 0
-162 -165 0
-162 -166 0
-163 -164 0
-163 -165 0
-163 -166 0
-164 -165 0
-164 -166 0
-165 -166 0
-152 97 159 0
-152 -97 160 0
-153 97 160 0
-153 -97 161 0
-154 97 161 0
-154 -97 162 0
-155 97 162 0
-155 -97 163 0
-156 97 163 0
-156 -97 164 0
-157 97 164 0
-157 -97 165 0
-158 97 165 0
-158 -97 166 0
167 168 169 170 171 172 173 174 175 0
-167 -168 0
-167 -169 0
-167 -170 0
-167 -171 0
-167 -172 0
-167 -173 0
-167 -174 0
-167 -175 0
-168 -169 0
-168 -170 0
-168 -171 0
-168 -172 0
-168 -173 0
-168 -174 0
-168 -175 0
-169 -170 0
-169 -171 0
-169 -172 0
-169 -173 0
-169 -174 0
-169 -175 0
-170 -171 0
-170 -172 0
-170 -173 0
-170 -174 0
-170 -175 0
-171 -172 0
-171 -173 0
-171 -174 0
-171 -175 0
-172 -173 0
-172 -174 0
-172 -175 0
-173 -174 0
-173 -175 0
-174 -175 0
-159 98 167 0
-159 -98 168 0
-160 98 168 0
-160 -98 169 0
-161 98 169 0
-161 -98 170 0
-162 98 170 0
-162 -98 171 0
-163 98 171 0
-163 -98 172 0
-164 98 172 0
-164 -98 173 0
-165 98 173 0
-165 -98 174 0
-166 98 174 0
-166 -98 175 0
176 177 178 179 180 181 182 183 184 185 0
-176 -177 0
-176 -178 0
-176 -179 0
-176 -180 0
-176 -181 0
-176 -182 0
-176 -183 0
-176 -184 0
-176 -185 0
-177 -178 0
-177 -179 0
-177 -180 0
-177 -181 0
-177 -182 0
-177 -183 0
-177 -184 0
-177 -185 0
-178 -179 0
-178 -180 0
-178 -181 0
-178 -182 0
-178 -183 0
-178 -184 0
-178 -185 0
-179 -180 0
-179 -181 0
-179 -182 0
-179 -183 0
-179 -184 0
-179 -185 0
-180 -181 0
-180 -182 0
-180 -183 0
-180 -184 0
-180 -185 0
-181 -182 0
-181 -183 0
-181 -184 0
-181 -185 0
-182 -183 0
-182 -184 0
-182 -185 0
-183 -184 0
-183 -185 0
-184 -185 0
-167 99 176 0
-167 -99 177 0
-168 99 177 0
-168 -99 178 0
-169 99 178 0
-169 -99 179 0
-170 99 179 0
-170 -99 180 0
-171 99 180 0
-171 -99 181 0
-172 99 181 0
-172 -99 182 0
-173 99 182 0
-173 -99 183 0
-174 99 183 0
-174 -99 184 0
-175 99 184 0
-175 -99 185 0
186 187 188 189 190 191 192 193 194 195 196 0
-186 -187 0
-186 -188 0
-186 -189 0
-186 -190 0
-186 -191 0
-186 -192 0
-186 -193 0
-186 -194 0
-186 -195 0
-186 -196 0
-187 -188 0
-187 -189 0
-187 -190 0
-187 -191 0
-187 -192 0
-187 -193 0
-187 -194 0
-187 -195 0
-187 -196 0
-188 -189 0
-188 -190 0
-188 -191 0
-188 -192 0
-188 -193 0
-188 -194 0
-188 -195 0
-188 -196 0
-189 -190 0
-189 -191 0
-189 -192 0
-189 -193 0
-189 -194 0
-189 -195 0
-189 -196 0
-190 -191 0
-190 -192 0
-190 -193 0
-190 -194 0
-190 -195 0
-190 -196 0
-191 -192 0
-191 -193 0
-191 -194 0
-191 -195 0
-191 -196 0
-192 -193 0
-192 -194 0
-192 -195 0
-192 -196 0
-193 -194 0
-193 -195 0
-193 -196 0
-194 -195 0
-194 -196 0
-195 -196 0
-176 100 186 0
-176 -100 187 0
-177 100 187 0
-177 -100 188 0
-178 100 188 0
-178 -100 189 0
-179 100 189 0
-179 -100 190 0
-180 100 190 0
-180 -100 191 0
-181 100 191 0
-181 -100 192 0
-182 100 192 0
-182 -100 193 0
-183 100 193 0
-183 -100 194 0
-184 100 194 0
-184 -100 195 0
-185 100 195 0
-185 -100 196 0
197 198 199 200 201 202 203 204 205 206 207 208 0
-197 -198 0
-197 -199 0
-197 -200 0
-197 -201 0
-197 -202 0
-197 -203 0
-197 -204 0
-197 -205 0
-197 -206 0
-197 -207 0
-197 -208 0
-198 -199 0
-198 -200 0
-198 -201 0
-198 -202 0
-198 -203 0
-198 -204 0
-198 -205 0
-198 -206 0
-198 -207 0
-198 -208 0
-199 -200 0
-199 -201 0
-199 -202 0
-199 -203 0
-199 -204 0
-199 -205 0
-199 -206 0
-199 -207 0
-199 -208 0
-200 -201 0
-200 -202 0
-200 -203 0
-200 -204 0
-200 -205 0
-200 -206 0
-200 -207 0
-200 -208 0
-201 -202 0
-201 -203 0
-201 -204 0
-201 -205 0
-201 -206 0
-201 -207 0
-201 -208 0
-202 -203 0
-202 -204 0
-202 -205 0
-202 -206 0
-202 -207 0
-202 -208 0
-203 -204 0
-203 -205 0
-203 -206 0
-203 -207 0
-203 -208 0
-204 -205 0
-204 -206 0
-204 -207 0
-204 -208 0
-205 -206 0
-205 -207 0
-205 -208 0
-206 -207 0
-206 -208 0
-207 -208 0
-186 101 197 0
-186 -101 198 0
-187 101 198 0
-187 -101 199 0
-188 101 199 0
-188 -101 200 0
-189 101 200 0
-189 -101 201 0
-190 101 201 0
-190 -101 202 0
-191 101 202 0
-191 -101 203 0
-192 101 203 0
-192 -101 204 0
-193 101 204 0
-193 -101 205 0
-194 101 205 0
-194 -101 206 0
-195 101 206 0
-195 -101 207 0
-196 101 207 0
-196 -101 208 0
209 210 211 212 213 214 215 216 217 218 219 220 221 0
-209 -210 0
-209 -211 0
-209 -212 0
-209 -213 0
-209 -214 0
-209 -215 0
-209 -216 0
-209 -217 0
-209 -218 0
-209 -219 0
-209 -220 0
-209 -221 0
-210 -211 0
-210 -212 0
-210 -213 0
-210 -214 0
-210 -215 0
-210 -216 0
-210 -217 0
-210 -218 0
-210 -219 0
-210 -220 0
-210 -221 0
-211 -212 0
-211 -213 0
-211 -214 0
-211 -215 0
-211 -216 0
-211 -217 0
-211 -218 0
-211 -219 0
-211 -220 0
-211 -221 0
-212 -213 0
-212 -214 0
-212 -215 0
-212 -216 0
-212 -217 0
-212 -218 0
-212 -219 0
-212 -220 0
-212 -221 0
-213 -214 0
-213 -215 0
-213 -216 0
-213 -217 0
-213 -218 0
-213 -219 0
-213 -220 0
-213 -221 0
-214 -215 0
-214 -216 0
-214 -217 0
-214 -218 0
-214 -219 0
-214 -220 0
-214 -221 0
-215 -216 0
-215 -217 0
-215 -218 0
-215 -219 0
-215 -220 0
-215 -221 0
-216 -217 0
-216 -218 0
-216 -219 0
-216 -220 0
-216 -221 0
-217 -218 0
-217 -219 0
-217 -220 0
-217 -221 0
-218 -219 0
-218 -220 0
-218 -221 0
-219 -220 0
-219 -221 0
-220 -221 0
-197 102 209 0
-197 -102 210 0
-198 102 210 0
-198 -102 211 0
-199 102 211 0
-199 -102 212 0
-200 102 212 0
-200 -102 213 0
-201 102 213 0
-201 -102 214 0
-202 102 214 0
-202 -102 215 0
-203 102 215 0
-203 -102 216 0
-204 102 216 0
-204 -102 217 0
-205 102 217 0
-205 -102 218 0
-206 102 218 0
-206 -102 219 0
-207 102 219 0
-207 -102 220 0
-208 102 220 0
-208 -102 221 0
222 223 224 225 226 227 228 229 230 231 232 233 234 235 0
-222 -223 0
-222 -224 0
-222 -225 0
-222 -226 0
-222 -227 0
-222 -228 0
-222 -229 0
-222 -230 0
-222 -231 0
-222 -232 0
-222 -233 0
-222 -234 0
-222 -235 0
-223 -224 0
-223 -225 0
-223 -226 0
-223 -227 0
-223 -228 0
-223 -229 0
-223 -230 0
-223 -231 0
-223 -232 0
-223 -233 0
-223 -234 0
-223 -235 0
-224 -225 0
-224 -226 0
-224 -227 0
-224 -228 0
-224 -229 0
-224 -230 0
-224 -231 0
-224 -232 0
-224 -233 0
-224 -234 0
-224 -235 0
-225 -226 0
-225 -227 0
-225 -228 0
-225 -229 0
-225 -230 0
-225 -231 0
-225 -232 0
-225 -233 0
-225 -234 0
-225 -235 0
-226 -227 0
-226 -228 0
-226 -229 0
-226 -230 0
-226 -231 0
-226 -232 0
-226 -233 0
-226 -234 0
-226 -235 0
-227 -228 0
-227 -229 0
-227 -230 0
-227 -231 0
-227 -232 0
-227 -233 0
-227 -234 0
-227 -235 0
-228 -229 0
-228 -230 0
-228 -231 0
-228 -232 0
-228 -233 0
-228 -234 0
-228 -235 0
-229 -230 0
-229 -231 0
-229 -232 0
-229 -233 0
-229 -234 0
-229 -235 0
-230 -231 0
-230 -232 0
-230 -233 0
-230 -234 0
-230 -235 0
-231 -232 0
-231 -233 0
-231 -234 0
-231 -235 0
-232 -233 0
-232 -234 0
-232 -235 0
-233 -234 0
-233 -235 0
-234 -235 0
-209 103 222 0
-209 -103 223 0
-210 103 223 0
-210 -103 224 0
-211 103 224 0
-211 -103 225 0
-212 103 225 0
-212 -103 226 0
-213 103 226 0
-213 -103 227 0
-214 103 227 0
-214 -103 228 0
-215 103 228 0
-215 -103 229 0
-216 103 229 0
-216 -103 230 0
-217 103 230 0
-217 -103 231 0
-218 103 231 0
-218 -103 232 0
-219 103 232 0
-219 -103 233 0
-220 103 233 0
-220 -103 234 0
-221 103 234 0
-221 -103 235 0
236 237 238 239 240 241 242 243 244 245 246 247 248 249 250 0
-236 -237 0
-236 -238 0
-236 -239 0
-236 -240 0
-236 -241 0
-236 -242 0
-236 -243 0
-236 -244 0
-236 -245 0
-236 -246 0
-236 -247 0
-236 -248 0
-236 -249 0
-236 -250 0
-237 -238 0
-237 -239 0
-237 -240 0
-237 -241 0
-237 -242 0
-237 -243 0
-237 -244 0
-237 -245 0
-237 -246 0
-237 -247 0
-237 -248 0
-237 -249 0
-237 -250 0
-238 -239 0
-238 -240 0
-238 -241 0
-238 -242 0
-238 -243 0
-238 -244 0
-238 -245 0
-238 -246 0
-238 -247 0
-238 -248 0
-238 -249 0
-238 -250 0
-239 -240 0
-239 -241 0
-239 -242 0
-239 -243 0
-239 -244 0
-239 -245 0
-239 -246 0
-239 -247 0
-239 -248 0
-239 -249 0
-239 -250 0
-240 -241 0
-240 -242 0
-240 -243 0
-240 -244 0
-240 -245 0
-240 -246 0
-240 -247 0
-240 -248 0
-240 -249 0
-240 -250 0
-241 -242 0
-241 -243 0
-241 -244 0
-241 -245 0
-241 -246 0
-241 -247 0
-241 -248 0
-241 -249 0
-241 -250 0
-242 -243 0
-242 -244 0
-242 -245 0
-242 -246 0
-242 -247 0
-242 -248 0
-242 -249 0
-242 -250 0
-243 -244 0
-243 -245 0
-243 -246 0
-243 -247 0
-243 -248 0
-243 -249 0
-243 -250 0
-244 -245 0
-244 -246 0
-244 -247 0
-244 -248 0
-244 -249 0
-244 -250 0
-245 -246 0
-245 -247 0
-245 -248 0
-245 -249 0
-245 -250 0
-246 -247 0
-246 -248 0
-246 -249 0
-246 -250 0
-247 -248 0
-247 -249 0
-247 -250 0
-248 -249 0
-248 -250 0
-249 -250 0
-222 104 236 0
-222 -104 237 0
-223 104 237 0
-223 -104 238 0
-224 104 238 0
-224 -104 239 0
-225 104 239 0
-225 -104 240 0
-226 104 240 0
-226 -104 241 0
-227 104 241 0
-227 -104 242 0
-228 104 242 0
-228 -104 243 0
-229 104 243 0
-229 -104 244 0
-230 104 244 0
-230 -104 245 0
-231 104 245 0
-231 -104 246 0
-232 104 246 0
-232 -104 247 0
-233 104 247 0
-233 -104 248 0
-234 104 248 0
-234 -104 249 0
-235 104 249 0
-235 -104 250 0
251 252 253 254 255 256 257 258 259 260 261 262 263 264 265 266 0
-251 -252 0
-251 -253 0
-251 -254 0
-251 -255 0
-251 -256 0
-251 -257 0
-251 -258 0
-251 -259 0
-251 -260 0
-251 -261 0
-251 -262 0
-251 -263 0
-251 -264 0
-251 -265 0
-251 -266 0
-252 -253 0
-252 -254 0
-252 -255 0
-252 -256 0
-252 -257 0
-252 -258 0
-252 -259 0
-252 -260 0
-252 -261 0
-252 -262 0
-252 -263 0
-252 -264 0
-252 -265 0
-252 -266 0
-253 -254 0
-253 -255 0
-253 -256 0
-253 -257 0
-253 -258 0
-253 -259 0
-253 -260 0
-253 -261 0
-253 -262 0
-253 -263 0
-253 -264 0
-253 -265 0
-253 -266 0
-254 -255 0
-254 -256 0
-254 -257 0
-254 -258 0
-254 -259 0
-254 -260 0
-254 -261 0
-254 -262 0
-254 -263 0
-254 -264 0
-254 -265 0
-254 -266 0
-255 -256 0
-255 -257 0
-255 -258 0
-255 -259 0
-255 -260 0
-255 -261 0
-255 -262 0
-255 -263 0
-255 -264 0
-255 -265 0
-255 -266 0
-256 -257 0
-256 -258 0
-256 -259 0
-256 -260 0
-256 -261 0
-256 -262 0
-256 -263 0
-256 -264 0
-256 -265 0
-256 -266 0
-257 -258 0
-257 -259 0
-257 -260 0
-257 -261 0
-257 -262 0
-257 -263 0
-257 -264 0
-257 -265 0
-257 -266 0
-258 -259 0
-258 -260 0
-258 -261 0
-258 -262 0
-258 -263 0
-258 -264 0
-258 -265 0
-258 -266 0
-259 -260 0
-259 -261 0
-259 -262 0
-259 -263 0
-259 -264 0
-259 -265 0
-259 -266 0
-260 -261 0
-260 -262 0
-260 -263 0
-260 -264 0
-260 -265 0
-260 -266 0
-261 -262 0
-261 -263 0
-261 -264 0
-261 -265 0
-261 -266 0
-262 -263 0
-262 -264 0
-262 -265 0
-262 -266 0
-263 -264 0
-263 -265 0
-263 -266 0
-264 -265 0
-264 -266 0
-265 -266 0
-236 105 251 0
-236 -105 252 0
-237 105 252 0
-237 -105 253 0
-238 105 253 0
-238 -105 254 0
-239 105 254 0
-239 -105 255 0
-240 105 255 0
-240 -105 256 0
-241 105 256 0
-241 -105 257 0
-242 105 257 0
-242 -105 258 0
-243 105 258 0
-243 -105 259 0
-244 105 259 0
-244 -105 260 0
-245 105 260 0
-245 -105 261 0
-246 105 261 0
-246 -105 262 0
-247 105 262 0
-247 -105 263 0
-248 105 263 0
-248 -105 264 0
-249 105 264 0
-249 -105 265 0
-250 105 265 0
-250 -105 266 0
267 268 269 270 271 272 273 274 275 276 277 278 279 280 281 282 283 0
-267 -268 0
-267 -269 0
-267 -270 0
-267 -271 0
-267 -272 0
-267 -273 0
-267 -274 0
-267 -275 0
-267 -276 0
-267 -277 0
-267 -278 0
-267 -279 0
-267 -280 0
-267 -281 0
-267 -282 0
-267 -283 0
-268 -269 0
-268 -270 0
-268 -271 0
-268 -272 0
-268 -273 0
-268 -274 0
-268 -275 0
-268 -276 0
-268 -277 0
-268 -278 0
-268 -279 0
-268 -280 0
-268 -281 0
-268 -282 0
-268 -283 0
-269 -270 0
-269 -271 0
-269 -272 0
-269 -273 0
-269 -274 0
-269 -275 0
-269 -276 0
-269 -277 0
-269 -278 0
-269 -279 0
-269 -280 0
-269 -281 0
-269 -282 0
-269 -283 0
-270 -271 0
-270 -272 0
-270 -273 0
-270 -274 0
-270 -275 0
-270 -276 0
-270 -277 0
-270 -278 0
-270 -279 0
-270 -280 0
-270 -281 0
-270 -282 0
-270 -283 0
-271 -272 0
-271 -273 0
-271 -274 0
-271 -275 0
-271 -276 0
-271 -277 0
-271 -278 0
-271 -279 0
-271 -280 0
-271 -281 0
-271 -282 0
-271 -283 0
-272 -273 0
-272 -274 0
-272 -275 0
-272 -276 0
-272 -277 0
-272 -278 0
-272 -279 0
-272 -280 0
-272 -281 0
-272 -282 0
-272 -283 0
-273 -274 0
-273 -275 0
-273 -276 0
-273 -277 0
-273 -278 0
-273 -279 0
-273 -280 0
-273 -281 0
-273 -282 0
-273 -283 0
-274 -275 0
-274 -276 0
-274 -277 0
-274 -278 0
-274 -279 0
-274 -280 0
-274 -281 0
-274 -282 0
-274 -283 0
-275 -276 0
-275 -277 0
-275 -278 0
-275 -279 0
-275 -280 0
-275 -281 0
-275 -282 0
-275 -283 0
-276 -277 0
-276 -278 0
-276 -279 0
-276 -280 0
-276 -281 0
-276 -282 0
-276 -283 0
-277 -278 0
-277 -279 0
-277 -280 0
-277 -281 0
-277 -282 0
-277 -283 0
-278 -279 0
-278 -280 0
-278 -281 0
-278 -282 0
-278 -283 0
-279 -280 0
-279 -281 0
-279 -282 0
-279 -283 0
-280 -281 0
-280 -282 0
-280 -283 0
-281 -282 0
-281 -283 0
-282 -283 0
-251 106 267 0
-251 -106 268 0
-252 106 268 0
-252 -106 269 0
-253 106 269 0
-253 -106 270 0
-254 106 270 0
-254 -106 271 0
-255 106 271 0
-255 -106 272 0
-256 106 272 0
-256 -106 273 0
-257 106 273 0
-257 -106 274 0
-258 106 274 0
-258 -106 275 0
-259 106 275 0
-259 -106 276 0
-260 106 276 0
-260 -106 277 0
-261 106 277 0
-261 -106 278 0
-262 106 278 0
-262 -106 279 0
-263 106 279 0
-263 -106 280 0
-264 106 280 0
-264 -106 281 0
-265 106 281 0
-265 -106 282 0
-266 106 282 0
-266 -106 283 0
284 285 286 287 288 289 290 291 292 293 294 295 296 297 298 299 300 301 0
-284 -285 0
-284 -286 0
-284 -287 0
-284 -288 0
-284 -289 0
-284 -290 0
-284 -291 0
-284 -292 0
-284 -293 0
-284 -294 0
-284 -295 0
-284 -296 0
-284 -297 0
-284 -298 0
-284 -299 0
-284 -300 0
-284 -301 0
-285 -286 0
-285 -287 0
-285 -288 0
-285 -289 0
-285 -290 0
-285 -291 0
-285 -292 0
-285 -293 0
-285 -294 0
-285 -295 0
-285 -296 0
-285 -297 0
-285 -298 0
-285 -299 0
-285 -300 0
-285 -301 0
-286 -287 0
-286 -288 0
-286 -289 0
-286 -290 0
-286 -291 0
-286 -292 0
-286 -293 0
-286 -294 0
-286 -295 0
-286 -296 0
-286 -297 0
-286 -298 0
-286 -299 0
-286 -300 0
-286 -301 0
-287 -288 0
-287 -289 0
-287 -290 0
-287 -291 0
-287 -292 0
-287 -293 0
-287 -294 0
-287 -295 0
-287 -296 0
-287 -297 0
-287 -298 0
-287 -299 0
-287 -300 0
-287 -301 0
-288 -289 0
-288 -290 0
-288 -291 0
-288 -292 0
-288 -293 0
-288 -294 0
-288 -295 0
-288 -296 0
-288 -297 0
-288 -298 0
-288 -299 0
-288 -300 0
-288 -301 0
-289 -290 0
-289 -291 0
-289 -292 0
-289 -293 0
-289 -294 0
-289 -295 0
-289 -296 0
-289 -297 0
-289 -298 0
-289 -299 0
-289 -300 0
-289 -301 0
-290 -291 0
-290 -292 0
-290 -293 0
-290 -294 0
-290 -295 0
-290 -296 0
-290 -297 0
-290 -298 0
-290 -299 0
-290 -300 0
-290 -301 0
-291 -292 0
-291 -293 0
-291 -294 0
-291 -295 0
-291 -296 0
-291 -297 0
-291 -298 0
-291 -299 0
-291 -300 0
-291 -301 0
-292 -293 0
-292 -294 0
-292 -295 0
-292 -296 0
-292 -297 0
-292 -298 0
-292 -299 0
-292 -300 0
-292 -301 0
-293 -294 0
-293 -295 0
-293 -296 0
-293 -297 0
-293 -298 0
-293 -299 0
-293 -300 0
-293 -301 0
-294 -295 0
-294 -296 0
-294 -297 0
-294 -298 0
-294 -299 0
-294 -300 0
-294 -301 0
-295 -296 0
-295 -297 0
-295 -298 0
-295 -299 0
-295 -300 0
-295 -301 0
-296 -297 0
-296 -298 0
-296 -299 0
-296 -300 0
-296 -301 0
-297 -298 0
-297 -299 0
-297 -300 0
-297 -301 0
-298 -299 0
-298 -300 0
-298 -301 0
-299 -300 0
-299 -301 0
-300 -301 0
-267 107 284 0
-267 -107 285 0
-268 107 285 0
-268 -107 286 0
-269 107 286 0
-269 -107 287 0
-270 107 287 0
-270 -107 288 0
-271 107 288 0
-271 -107 289 0
-272 107 289 0
-272 -107 290 0
-273 107 290 0
-273 -107 291 0
-274 107 291 0
-274 -107 292 0
-275 107 292 0
-275 -107 293 0
-276 107 293 0
-276 -107 294 0
-277 107 294 0
-277 -107 295 0
-278 107 295 0
-278 -107 296 0
-279 107 296 0
-279 -107 297 0
-280 107 297 0
-280 -107 298 0
-281 107 298 0
-281 -107 299 0
-282 107 299 0
-282 -107 300 0
-283 107 300 0
-283 -107 301 0
302 303 304 305 306 307 308 309 310 311 312 313 314 315 316 317 318 319 320 0
-302 -303 0
-302 -304 0
-302 -305 0
-302 -306 0
-302 -307 0
-302 -308 0
-302 -309 0
-302 -310 0
-302 -311 0
-302 -312 0
-302 -313 0
-302 -314 0
-302 -315 0
-302 -316 0
-302 -317 0
-302 -318 0
-302 -319 0
-302 -320 0
-303 -304 0
-303 -305 0
-303 -306 0
-303 -307 0
-303 -308 0
-303 -309 0
-303 -310 0
-303 -311 0
-303 -312 0
-303 -313 0
-303 -314 0
-303 -315 0
-303 -316 0
-303 -317 0
-303 -318 0
-303 -319 0
-303 -320 0
-304 -305 0
-304 -306 0
-304 -307 0
-304 -308 0
-304 -309 0
-304 -310 0
-304 -311 0
-304 -312 0
-304 -313 0
-304 -314 0
-304 -315 0
-304 -316 0
-304 -317 0
-304 -318 0
-304 -319 0
-304 -320 0
-305 -306 0
-305 -307 0
-305 -308 0
-305 -309 0
-305 -310 0
-305 -311 0
-305 -312 0
-305 -313 0
-305 -314 0
-305 -315 0
-305 -316 0
-305 -317 0
-305 -318 0
-305 -319 0
-305 -320 0
-306 -307 0
-306 -308 0
-306 -309 0
-306 -310 0
-306 -311 0
-306 -312 0
-306 -313 0
-306 -314 0
-306 -315 0
-306 -316 0
-306 -317 0
-306 -318 0
-306 -319 0
-306 -320 0
-307 -308 0
-307 -309 0
-307 -310 0
-307 -311 0
-307 -312 0
-307 -313 0
-307 -314 0
-307 -315 0
-307 -316 0
-307 -317 0
-307 -318 0
-307 -319 0
-307 -320 0
-308 -309 0
-308 -310 0
-308 -311 0
-308 -312 0
-308 -313 0
-308 -314 0
-308 -315 0
-308 -316 0
-308 -317 0
-308 -318 0
-308 -319 0
-308 -320 0
-309 -310 0
-309 -311 0
-309 -312 0
-309 -313 0
-309 -314 0
-309 -315 0
-309 -316 0
-309 -317 0
-309 -318 0
-309 -319 0
-309 -320 0
-310 -311 0
-310 -312 0
-310 -313 0
-310 -314 0
-310 -315 0
-310 -316 0
-310 -317 0
-310 -318 0
-310 -319 0
-310 -320 0
-311 -312 0
-311 -313 0
-311 -314 0
-311 -315 0
-311 -316 0
-311 -317 0
-311 -318 0
-311 -319 0
-311 -320 0
-312 -313 0
-312 -314 0
-312 -315 0
-312 -316 0
-312 -317 0
-312 -318 0
-312 -319 0
-312 -320 0
-313 -314 0
-313 -315 0
-313 -316 0
-313 -317 0
-313 -318 0
-313 -319 0
-313 -320 0
-314 -315 0
-314 -316 0
-314 -317 0
-314 -318 0
-314 -319 0
-314 -320 0
-315 -316 0
-315 -317 0
-315 -318 0
-315 -319 0
-315 -320 0
-316 -317 0
-316 -318 0
-316 -319 0
-316 -320 0
-317 -318 0
-317 -319 0
-317 -320 0
-318 -319 0
-318 -320 0
-319 -320 0
-284 108 302 0
-284 -108 303 0
-285 108 303 0
-285 -108 304 0
-286 108 304 0
-286 -108 305 0
-287 108 305 0
-287 -108 306 0
-288 108 306 0
-288 -108 307 0
-289 108 307 0
-289 -108 308 0
-290 108 308 0
-290 -108 309 0
-291 108 309 0
-291 -108 310 0
-292 108 310 0
-292 -108 311 0
-293 108 311 0
-293 -108 312 0
-294 108 312 0
-294 -108 313 0
-295 108 313 0
-295 -108 314 0
-296 108 314 0
-296 -108 315 0
-297 108 315 0
-297 -108 316 0
-298 108 316 0
-298 -108 317 0
-299 108 317 0
-299 -108 318 0
-300 108 318 0
-300 -108 319 0
-301 108 319 0
-301 -108 320 0
321 322 323 324 325 326 327 328 329 330 331 332 333 334 335 336 337 338 339 340 0
-321 -322 0
-321 -323 0
-321 -324 0
-321 -325 0
-321 -326 0
-321 -327 0
-321 -328 0
-321 -329 0
-321 -330 0
-321 -331 0
-321 -332 0
-321 -333 0
-321 -334 0
-321 -335 0
-321 -336 0
-321 -337 0
-321 -338 0
-321 -339 0
-321 -340 0
-322 -323 0
-322 -324 0
-322 -325 0
-322 -326 0
-322 -327 0
-322 -328 0
-322 -329 0
-322 -330 0
-322 -331 0
-322 -332 0
-322 -333 0
-322 -334 0
-322 -335 0
-322 -336 0
-322 -337 0
-322 -338 0
-322 -339 0
-322 -340 0
-323 -324 0
-323 -325 0
-323 -326 0
-323 -327 0
-323 -328 0
-323 -329 0
-323 -330 0
-323 -331 0
-323 -332 0
-323 -333 0
-323 -334 0
-323 -335 0
-323 -336 0
-323 -337 0
-323 -338 0
-323 -339 0
-323 -340 0
-324 -325 0
-324 -326 0
-324 -327 0
-324 -328 0
-324 -329 0
-324 -330 0
-324 -331 0
-324 -332 0
-324 -333 0
-324 -334 0
-324 -335 0
-324 -336 0
-324 -337 0
-324 -338 0
-324 -339 0
-324 -340 0
-325 -326 0
-325 -327 0
-325 -328 0
-325 -329 0
-325 -330 0
-325 -331 0
-325 -332 0
-325 -333 0
-325 -334 0
-325 -335 0
-325 -336 0
-325 -337 0
-325 -338 0
-325 -339 0
-325 -340 0
-326 -327 0
-326 -328 0
-326 -329 0
-326 -330 0
-326 -331 0
-326 -332 0
-326 -333 0
-326 -334 0
-326 -335 0
-326 -336 0
-326 -337 0
-326 -338 0
-326 -339 0
-326 -340 0
-327 -328 0
-327 -329 0
-327 -330 0
-327 -331 0
-327 -332 0
-327 -333 0
-327 -334 0
-327 -335 0
-327 -336 0
-327 -337 0
-327 -338 0
-327 -339 0
-327 -340 0
-328 -329 0
-328 -330 0
-328 -331 0
-328 -332 0
-328 -333 0
-328 -334 0
-328 -335 0
-328 -336 0
-328 -337 0
-328 -338 0
-328 -339 0
-328 -340 0
-329 -330 0
-329 -331 0
-329 -332 0
-329 -333 0
-329 -334 0
-329 -335 0
-329 -336 0
-329 -337 0
-329 -338 0
-329 -339 0
-329 -340 0
-330 -331 0
-330 -332 0
-330 -333 0
-330 -334 0
-330 -335 0
-330 -336 0
-330 -337 0
-330 -338 0
-330 -339 0
-330 -340 0
-331 -332 0
-331 -333 0
-331 -334 0
-331 -335 0
-331 -336 0
-331 -337 0
-331 -338 0
-331 -339 0
-331 -340 0
-332 -333 0
-332 -334 0
-332 -335 0
-332 -336 0
-332 -337 0
-332 -338 0
-332 -339 0
-332 -340 0
-333 -334 0
-333 -335 0
-333 -336 0
-333 -337 0
-333 -338 0
-333 -339 0
-333 -340 0
-334 -335 0
-334 -336 0
-334 -337 0
-334 -338 0
-334 -339 0
-334 -340 0
-335 -336 0
-335 -337 0
-335 -338 0
-335 -339 0
-335 -340 0
-336 -337 0
-336 -338 0
-336 -339 0
-336 -340 0
-337 -338 0
-337 -339 0
-337 -340 0
-338 -339 0
-338 -340 0
-339 -340 0
-302 109 321 0
-302 -109 322 0
-303 109 322 0
-303 -109 323 0
-304 109 323 0
-304 -109 324 0
-305 109 324 0
-305 -109 325 0
-306 109 325 0
-306 -109 326 0
-307 109 326 0
-307 -109 327 0
-308 109 327 0
-308 -109 328 0
-309 109 328 0
-309 -109 329 0
-310 109 329 0
-310 -109 330 0
-311 109 330 0
-311 -109 331 0
-312 109 331 0
-312 -109 332 0
-313 109 332 0
-313 -109 333 0
-314 109 333 0
-314 -109 334 0
-315 109 334 0
-315 -109 335 0
-316 109 335 0
-316 -109 336 0
-317 109 336 0
-317 -109 337 0
-318 109 337 0
-318 -109 338 0
-319 109 338 0
-319 -109 339 0
-320 109 339 0
-320 -109 340 0
341 342 343 344 345 346 347 348 349 350 351 352 353 354 355 356 357 358 359 360 361 0
-341 -342 0
-341 -343 0
-341 -344 0
-341 -345 0
-341 -346 0
-341 -347 0
-341 -348 0
-341 -349 0
-341 -350 0
-341 -351 0
-341 -352 0
-341 -353 0
-341 -354 0
-341 -355 0
-341 -356 0
-341 -357 0
-341 -358 0
-341 -359 0
-341 -360 0
-341 -361 0
-342 -343 0
-342 -344 0
-342 -345 0
-342 -346 0
-342 -347 0
-342 -348 0
-342 -349 0
-342 -350 0
-342 -351 0
-342 -352 0
-342 -353 0
-342 -354 0
-342 -355 0
-342 -356 0
-342 -357 0
-342 -358 0
-342 -359 0
-342 -360 0
-342 -361 0
-343 -344 0
-343 -345 0
-343 -346 0
-343 -347 0
-343 -348 0
-343 -349 0
-343 -350 0
-343 -351 0
-343 -352 0
-343 -353 0
-343 -354 0
-343 -355 0
-343 -356 0
-343 -357 0
-343 -358 0
-343 -359 0
-343 -360 0
-343 -361 0
-344 -345 0
-344 -346 0
-344 -347 0
-344 -348 0
-344 -349 0
-344 -350 0
-344 -351 0
-344 -352 0
-344 -353 0
-344 -354 0
-344 -355 0
-344 -356 0
-344 -357 0
-344 -358 0
-344 -359 0
-344 -360 0
-344 -361 0
-345 -346 0
-345 -347 0
-345 -348 0
-345 -349 0
-345 -350 0
-345 -351 0
-345 -352 0
-345 -353 0
-345 -354 0
-345 -355 0
-345 -356 0
-345 -357 0
-345 -358 0
-345 -359 0
-345 -360 0
-345 -361 0
-346 -347 0
-346 -348 0
-346 -349 0
-346 -350 0
-346 -351 0
-346 -352 0
-346 -353 0
-346 -354 0
-346 -355 0
-346 -356 0
-346 -357 0
-346 -358 0
-346 -359 0
-346 -360 0
-346 -361 0
-347 -348 0
-347 -349 0
-347 -350 0
-347 -351 0
-347 -352 0
-347 -353 0
-347 -354 0
-347 -355 0
-347 -356 0
-347 -357 0
-347 -358 0
-347 -359 0
-347 -360 0
-347 -361 0
-348 -349 0
-348 -350 0
-348 -351 0
-348 -352 0
-348 -353 0
-348 -354 0
-348 -355 0
-348 -356 0
-348 -357 0
-348 -358 0
-348 -359 0
-348 -360 0
-348 -361 0
-349 -350 0
-349 -351 0
-349 -352 0
-349 -353 0
-349 -354 0
-349 -355 0
-349 -356 0
-349 -357 0
-349 -358 0
-349 -359 0
-349 -360 0
-349 -361 0
-350 -351 0
-350 -352 0
-350 -353 0
-350 -354 0
-350 -355 0
-350 -356 0
-350 -357 0
-350 -358 0
-350 -359 0
-350 -360 0
-350 -361 0
-351 -352 0
-351 -353 0
-351 -354 0
-351 -355 0
-351 -356 0
-351 -357 0
-351 -358 0
-351 -359 0
-351 -360 0
-351 -361 0
-352 -353 0
-352 -354 0
-352 -355 0
-352 -356 0
-352 -357 0
-352 -358 0
-352 -359 0
-352 -360 0
-352 -361 0
-353 -354 0
-353 -355 0
-353 -356 0
-353 -357 0
-353 -358 0
-353 -359 0
-353 -360 0
-353 -361 0
-354 -355 0
-354 -356 0
-354 -357 0
-354 -358 0
-354 -359 0
-354 -360 0
-354 -361 0
-355 -356 0
-355 -357 0
-355 -358 0
-355 -359 0
-355 -360 0
-355 -361 0
-356 -357 0
-356 -358 0
-356 -359 0
-356 -360 0
-356 -361 0
-357 -358 0
-357 -359 0
-357 -360 0
-357 -361 0
-358 -359 0
-358 -360 0
-358 -361 0
-359 -360 0
-359 -361 0
-360 -361 0
-321 110 341 0
-321 -110 342 0
-322 110 342 0
-322 -110 343 0
-323 110 343 0
-323 -110 344 0
-324 110 344 0
-324 -110 345 0
-325 110 345 0
-325 -110 346 0
-326 110 346 0
-326 -110 347 0
-327 110 347 0
-327 -110 348 0
-328 110 348 0
-328 -110 349 0
-329 110 349 0
-329 -110 350 0
-330 110 350 0
-330 -110 351 0
-331 110 351 0
-331 -110 352 0
-332 110 352 0
-332 -110 353 0
-333 110 353 0
-333 -110 354 0
-334 110 354 0
-334 -110 355 0
-335 110 355 0
-335 -110 356 0
-336 110 356 0
-336 -110 357 0
-337 110 357 0
-337 -110 358 0
-338 110 358 0
-338 -110 359 0
-339 110 359 0
-339 -110 360 0
-340 110 360 0
-340 -110 361 0
362 363 364 365 366 367 368 369 370 371 372 373 374 375 376 377 378 379 380 381 382 383 0
-362 -363 0
-362 -364 0
-362 -365 0
-362 -366 0
-362 -367 0
-362 -368 0
-362 -369 0
-362 -370 0
-362 -371 0
-362 -372 0
-362 -373 0
-362 -374 0
-362 -375 0
-362 -376 0
-362 -377 0
-362 -378 0
-362 -379 0
-362 -380 0
-362 -381 0
-362 -382 0
-362 -383 0
-363 -364 0
-363 -365 0
-363 -366 0
-363 -367 0
-363 -368 0
-363 -369 0
-363 -370 0
-363 -371 0
-363 -372 0
-363 -373 0
-363 -374 0
-363 -375 0
-363 -376 0
-363 -377 0
-363 -378 0
-363 -379 0
-363 -380 0
-363 -381 0
-363 -382 0
-363 -383 0
-364 -365 0
-364 -366 0
-364 -367 0
-364 -368 0
-364 -369 0
-364 -370 0
-364 -371 0
-364 -372 0
-364 -373 0
-364 -374 0
-364 -375 0
-364 -376 0
-364 -377 0
-364 -378 0
-364 -379 0
-364 -380 0
-364 -381 0
-364 -382 0
-364 -383 0
-365 -366 0
-365 -367 0
-365 -368 0
-365 -369 0
-365 -370 0
-365 -371 0
-365 -372 0
-365 -373 0
-365 -374 0
-365 -375 0
-365 -376 0
-365 -377 0
-365 -378 0
-365 -379 0
-365 -380 0
-365 -381 0
-365 -382 0
-365 -383 0
-366 -367 0
-366 -368 0
-366 -369 0
-366 -370 0
-366 -371 0
-366 -372 0
-366 -373 0
-366 -374 0
-366 -375 0
-366 -376 0
-366 -377 0
-366 -378 0
-366 -379 0
-366 -380 0
-366 -381 0
-366 -382 0
-366 -383 0
-367 -368 0
-367 -369 0
-367 -370 0
-367 -371 0
-367 -372 0
-367 -373 0
-367 -374 0
-367 -375 0
-367 -376 0
-367 -377 0
-367 -378 0
-367 -379 0
-367 -380 0
-367 -381 0
-367 -382 0
-367 -383 0
-368 -369 0
-368 -370 0
-368 -371 0
-368 -372 0
-368 -373 0
-368 -374 0
-368 -375 0
-368 -376 0
-368 -377 0
-368 -378 0
-368 -379 0
-368 -380 0
-368 -381 0
-368 -382 0
-368 -383 0
-369 -370 0
-369 -371 0
-369 -372 0
-369 -373 0
-369 -374 0
-369 -375 0
-369 -376 0
-369 -377 0
-369 -378 0
-369 -379 0
-369 -380 0
-369 -381 0
-369 -382 0
-369 -383 0
-370 -371 0
-370 -372 0
-370 -373 0
-370 -374 0
-370 -375 0
-370 -376 0
-370 -377 0
-370 -378 0
-370 -379 0
-370 -380 0
-370 -381 0
-370 -382 0
-370 -383 0
-371 -372 0
-371 -373 0
-371 -374 0
-371 -375 0
-371 -376 0
-371 -377 0
-371 -378 0
-371 -379 0
-371 -380 0
-371 -381 0
-371 -382 0
-371 -383 0
-372 -373 0
-372 -374 0
-372 -375 0
-372 -376 0
-372 -377 0
-372 -378 0
-372 -379 0
-372 -380 0
-372 -381 0
-372 -382 0
-372 -383 0
-373 -374 0
-373 -375 0
-373 -376 0
-373 -377 0
-373 -378 0
-373 -379 0
-373 -380 0
-373 -381 0
-373 -382 0
-373 -383 0
-374 -375 0
-374 -376 0
-374 -377 0
-374 -378 0
-374 -379 0
-374 -380 0
-374 -381 0
-374 -382 0
-374 -383 0
-375 -376 0
-375 -377 0
-375 -378 0
-375 -379 0
-375 -380 0
-375 -381 0
-375 -382 0
-375 -383 0
-376 -377 0
-376 -378 0
-376 -379 0
-376 -380 0
-376 -381 0
-376 -382 0
-376 -383 0
-377 -378 0
-377 -379 0
-377 -380 0
-377 -381 0
-377 -382 0
-377 -383 0
-378 -379 0
-378 -380 0
-378 -381 0
-378 -382 0
-378 -383 0
-379 -380 0
-379 -381 0
-379 -382 0
-379 -383 0
-380 -381 0
-380 -382 0
-380 -383 0
-381 -382 0
-381 -383 0
-382 -383 0
-341 111 362 0
-341 -111 363 0
-342 111 363 0
-342 -111 364 0
-343 111 364 0
-343 -111 365 0
-344 111 365 0
-344 -111 366 0
-345 111 366 0
-345 -111 367 0
-346 111 367 0
-346 -111 368 0
-347 111 368 0
-347 -111 369 0
-348 111 369 0
-348 -111 370 0
-349 111 370 0
-349 -111 371 0
-350 111 371 0
-350 -111 372 0
-351 111 372 0
-351 -111 373 0
-352 111 373 0
-352 -111 374 0
-353 111 374 0
-353 -111 375 0
-354 111 375 0
-354 -111 376 0
-355 111 376 0
-355 -111 377 0
-356 111 377 0
-356 -111 378 0
-357 111 378 0
-357 -111 379 0
-358 111 379 0
-358 -111 380 0
-359 111 380 0
-359 -111 381 0
-360 111 381 0
-360 -111 382 0
-361 111 382 0
-361 -111 383 0
384 385 386 387 388 389 390 391 392 393 394 395 396 397 398 399 400 401 402 403 404 405 406 0
-384 -385 0
-384 -386 0
-384 -387 0
-384 -388 0
-384 -389 0
-384 -390 0
-384 -391 0
-384 -392 0
-384 -393 0
-384 -394 0
-384 -395 0
-384 -396 0
-384 -397 0
-384 -398 0
-384 -399 0
-384 -400 0
-384 -401 0
-384 -402 0
-384 -403 0
-384 -404 0
-384 -405 0
-384 -406 0
-385 -386 0
-385 -387 0
-385 -388 0
-385 -389 0
-385 -390 0
-385 -391 0
-385 -392 0
-385 -393 0
-385 -394 0
-385 -395 0
-385 -396 0
-385 -397 0
-385 -398 0
-385 -399 0
-385 -400 0
-385 -401 0
-385 -402 0
-385 -403 0
-385 -404 0
-385 -405 0
-385 -406 0
-386 -387 0
-386 -388 0
-386 -389 0
-386 -390 0
-386 -391 0
-386 -392 0
-386 -393 0
-386 -394 0
-386 -395 0
-386 -396 0
-386 -397 0
-386 -398 0
-386 -399 0
-386 -400 0
-386 -401 0
-386 -402 0
-386 -403 0
-386 -404 0
-386 -405 0
-386 -406 0
-387 -388 0
-387 -389 0
-387 -390 0
-387 -391 0
-387 -392 0
-387 -393 0
-387 -394 0
-387 -395 0
-387 -396 0
-387 -397 0
-387 -398 0
-387 -399 0
-387 -400 0
-387 -401 0
-387 -402 0
-387 -403 0
-387 -404 0
-387 -405 0
-387 -406 0
-388 -389 0
-388 -390 0
-388 -391 0
-388 -392 0
-388 -393 0
-388 -394 0
-388 -395 0
-388 -396 0
-388 -397 0
-388 -398 0
-388 -399 0
-388 -400 0
-388 -401 0
-388 -402 0
-388 -403 0
-388 -404 0
-388 -405 0
-388 -406 0
-389 -390 0
-389 -391 0
-389 -392 0
-389 -393 0
-389 -394 0
-389 -395 0
-389 -396 0
-389 -397 0
-389 -398 0
-389 -399 0
-389 -400 0
-389 -401 0
-389 -402 0
-389 -403 0
-389 -404 0
-389 -405 0
-389 -406 0
-390 -391 0
-390 -392 0
-390 -393 0
-390 -394 0
-390 -395 0
-390 -396 0
-390 -397 0
-390 -398 0
-390 -399 0
-390 -400 0
-390 -401 0
-390 -402 0
-390 -403 0
-390 -404 0
-390 -405 0
-390 -406 0
-391 -392 0
-391 -393 0
-391 -394 0
-391 -395 0
-391 -396 0
-391 -397 0
-391 -398 0
-391 -399 0
-391 -400 0
-391 -401 0
-391 -402 0
-391 -403 0
-391 -404 0
-391 -405 0
-391 -406 0
-392 -393 0
-392 -394 0
-392 -395 0
-392 -396 0
-392 -397 0
-392 -398 0
-392 -399 0
-392 -400 0
-392 -401 0
-392 -402 0
-392 -403 0
-392 -404 0
-392 -405 0
-392 -406 0
-393 -394 0
-393 -395 0
-393 -396 0
-393 -397 0
-393 -398 0
-393 -399 0
-393 -400 0
-393 -401 0
-393 -402 0
-393 -403 0
-393 -404 0
-393 -405 0
-393 -406 0
-394 -395 0
-394 -396 0
-394 -397 0
-394 -398 0
-394 -399 0
-394 -400 0
-394 -401 0
-394 -402 0
-394 -403 0
-394 -404 0
-394 -405 0
-394 -406 0
-395 -396 0
-395 -397 0
-395 -398 0
-395 -399 0
-395 -400 0
-395 -401 0
-395 -402 0
-395 -403 0
-395 -404 0
-395 -405 0
-395 -406 0
-396 -397 0
-396 -398 0
-396 -399 0
-396 -400 0
-396 -401 0
-396 -402 0
-396 -403 0
-396 -404 0
-396 -405 0
-396 -406 0
-397 -398 0
-397 -399 0
-397 -400 0
-397 -401 0
-397 -402 0
-397 -403 0
-397 -404 0
-397 -405 0
-397 -406 0
-398 -399 0
-398 -400 0
-398 -401 0
-398 -402 0
-398 -403 0
-398 -404 0
-398 -405 0
-398 -406 0
-399 -400 0
-399 -401 0
-399 -402 0
-399 -403 0
-399 -404 0
-399 -405 0
-399 -406 0
-400 -401 0
-400 -402 0
-400 -403 0
-400 -404 0
-400 -405 0
-400 -406 0
-401 -402 0
-401 -403 0
-401 -404 0
-401 -405 0
-401 -406 0
-402 -403 0
-402 -404 0
-402 -405 0
-402 -406 0
-403 -404 0
-403 -405 0
-403 -406 0
-404 -405 0
-404 -406 0
-405 -406 0
-362 112 384 0
-362 -112 385 0
-363 112 385 0
-363 -112 386 0
-364 112 386 0
-364 -112 387 0
-365 112 387 0
-365 -112 388 0
-366 112 388 0
-366 -112 389 0
-367 112 389 0
-367 -112 390 0
-368 112 390 0
-368 -112 391 0
-369 112 391 0
-369 -112 392 0
-370 112 392 0
-370 -112 393 0
-371 112 393 0
-371 -112 394 0
-372 112 394 0
-372 -112 395 0
-373 112 395 0
-373 -112 396 0
-374 112 396 0
-374 -112 397 0
-375 112 397 0
-375 -112 398 0
-376 112 398 0
-376 -112 399 0
-377 112 399 0
-377 -112 400 0
-378 112 400 0
-378 -112 401 0
-379 112 401 0
-379 -112 402 0
-380 112 402 0
-380 -112 403 0
-381 112 403 0
-381 -112 404 0
-382 112 404 0
-382 -112 405 0
-383 112 405 0
-383 -112 406 0
407 408 409 410 411 412 413 414 415 416 417 418 419 420 421 422 423 424 425 426 427 428 429 430 0
-407 -408 0
-407 -409 0
-407 -410 0
-407 -411 0
-407 -412 0
-407 -413 0
-407 -414 0
-407 -415 0
-407 -416 0
-407 -417 0
-407 -418 0
-407 -419 0
-407 -420 0
-407 -421 0
-407 -422 0
-407 -423 0
-407 -424 0
-407 -425 0
-407 -426 0
-407 -427 0
-407 -428 0
-407 -429 0
-407 -430 0
-408 -409 0
-408 -410 0
-408 -411 0
-408 -412 0
-408 -413 0
-408 -414 0
-408 -415 0
-408 -416 0
-408 -417 0
-408 -418 0
-408 -419 0
-408 -420 0
-408 -421 0
-408 -422 0
-408 -423 0
-408 -424 0
-408 -425 0
-408 -426 0
-408 -427 0
-408 -428 0
-408 -429 0
-408 -430 0
-409 -410 0
-409 -411 0
-409 -412 0
-409 -413 0
-409 -414 0
-409 -415 0
-409 -416 0
-409 -417 0
-409 -418 0
-409 -419 0
-409 -420 0
-409 -421 0
-409 -422 0
-409 -423 0
-409 -424 0
-409 -425 0
-409 -426 0
-409 -427 0
-409 -428 0
-409 -429 0
-409 -430 0
-410 -411 0
-410 -412 0
-410 -413 0
-410 -414 0
-410 -415 0
-410 -416 0
-410 -417 0
-410 -418 0
-410 -419 0
-410 -420 0
-410 -421 0
-410 -422 0
-410 -423 0
-410 -424 0
-410 -425 0
-410 -426 0
-410 -427 0
-410 -428 0
-410 -429 0
-410 -430 0
-411 -412 0
-411 -413 0
-411 -414 0
-411 -415 0
-411 -416 0
-411 -417 0
-411 -418 0
-411 -419 0
-411 -420 0
-411 -421 0
-411 -422 0
-411 -423 0
-411 -424 0
-411 -425 0
-411 -426 0
-411 -427 0
-411 -428 0
-411 -429 0
-411 -430 0
-412 -413 0
-412 -414 0
-412 -415 0
-412 -416 0
-412 -417 0
-412 -418 0
-412 -419 0
-412 -420 0
-412 -421 0
-412 -422 0
-412 -423 0
-412 -424 0
-412 -425 0
-412 -426 0
-412 -427 0
-412 -428 0
-412 -429 0
-412 -430 0
-413 -414 0
-413 -415 0
-413 -416 0
-413 -417 0
-413 -418 0
-413 -419 0
-413 -420 0
-413 -421 0
-413 -422 0
-413 -423 0
-413 -424 0
-413 -425 0
-413 -426 0
-413 -427 0
-413 -428 0
-413 -429 0
-413 -430 0
-414 -415 0
-414 -416 0
-414 -417 0
-414 -418 0
-414 -419 0
-414 -420 0
-414 -421 0
-414 -422 0
-414 -423 0
-414 -424 0
-414 -425 0
-414 -426 0
-414 -427 0
-414 -428 0
-414 -429 0
-414 -430 0
-415 -416 0
-415 -417 0
-415 -418 0
-415 -419 0
-415 -420 0
-415 -421 0
-415 -422 0
-415 -423 0
-415 -424 0
-415 -425 0
-415 -426 0
-415 -427 0
-415 -428 0
-415 -429 0
-415 -430 0
-416 -417 0
-416 -418 0
-416 -419 0
-416 -420 0
-416 -421 0
-416 -422 0
-416 -423 0
-416 -424 0
-416 -425 0
-416 -426 0
-416 -427 0
-416 -428 0
-416 -429 0
-416 -430 0
-417 -418 0
-417 -419 0
-417 -420 0
-417 -421 0
-417 -422 0
-417 -423 0
-417 -424 0
-417 -425 0
-417 -426 0
-417 -427 0
-417 -428 0
-417 -429 0
-417 -430 0
-418 -419 0
-418 -420 0
-418 -421 0
-418 -422 0
-418 -423 0
-418 -424 0
-418 -425 0
-418 -426 0
-418 -427 0
-418 -428 0
-418 -429 0
-418 -430 0
-419 -420 0
-419 -421 0
-419 -422 0
-419 -423 0
-419 -424 0
-419 -425 0
-419 -426 0
-419 -427 0
-419 -428 0
-419 -429 0
-419 -430 0
-420 -421 0
-420 -422 0
-420 -423 0
-420 -424 0
-420 -425 0
-420 -426 0
-420 -427 0
-420 -428 0
-420 -429 0
-420 -430 0
-421 -422 0
-421 -423 0
-421 -424 0
-421 -425 0
-421 -426 0
-421 -427 0
-421 -428 0
-421 -429 0
-421 -430 0
-422 -423 0
-422 -424 0
-422 -425 0
-422 -426 0
-422 -427 0
-422 -428 0
-422 -429 0
-422 -430 0
-423 -424 0
-423 -425 0
-423 -426 0
-423 -427 0
-423 -428 0
-423 -429 0
-423 -430 0
-424 -425 0
-424 -426 0
-424 -427 0
-424 -428 0
-424 -429 0
-424 -430 0
-425 -426 0
-425 -427 0
-425 -428 0
-425 -429 0
-425 -430 0
-426 -427 0
-426 -428 0
-426 -429 0
-426 -430 0
-427 -428 0
-427 -429 0
-427 -430 0
-428 -429 0
-428 -430 0
-429 -430 0
-384 113 407 0
-384 -113 408 0
-385 113 408 0
-385 -113 409 0
-386 113 409 0
-386 -113 410 0
-387 113 410 0
-387 -113 411 0
-388 113 411 0
-388 -113 412 0
-389 113 412 0
-389 -113 413 0
-390 113 413 0
-390 -113 414 0
-391 113 414 0
-391 -113 415 0
-392 113 415 0
-392 -113 416 0
-393 113 416 0
-393 -113 417 0
-394 113 417 0
-394 -113 418 0
-395 113 418 0
-395 -113 419 0
-396 113 419 0
-396 -113 420 0
-397 113 420 0
-397 -113 421 0
-398 113 421 0
-398 -113 422 0
-399 113 422 0
-399 -113 423 0
-400 113 423 0
-400 -113 424 0
-401 113 424 0
-401 -113 425 0
-402 113 425 0
-402 -113 426 0
-403 113 426 0
-403 -113 427 0
-404 113 427 0
-404 -113 428 0
-405 113 428 0
-405 -113 429 0
-406 113 429 0
-406 -113 430 0
431 432 433 434 435 436 437 438 439 440 441 442 443 444 445 446 447 448 449 450 451 452 453 454 455 0
-431 -432 0
-431 -433 0
-431 -434 0
-431 -435 0
-431 -436 0
-431 -437 0
-431 -438 0
-431 -439 0
-431 -440 0
-431 -441 0
-431 -442 0
-431 -443 0
-431 -444 0
-431 -445 0
-431 -446 0
-431 -447 0
-431 -448 0
-431 -449 0
-431 -450 0
-431 -451 0
-431 -452 0
-431 -453 0
-431 -454 0
-431 -455 0
-432 -433 0
-432 -434 0
-432 -435 0
-432 -436 0
-432 -437 0
-432 -438 0
-432 -439 0
-432 -440 0
-432 -441 0
-432 -442 0
-432 -443 0
-432 -444 0
-432 -445 0
-432 -446 0
-432 -447 0
-432 -448 0
-432 -449 0
-432 -450 0
-432 -451 0
-432 -452 0
-432 -453 0
-432 -454 0
-432 -455 0
-433 -434 0
-433 -435 0
-433 -436 0
-433 -437 0
-433 -438 0
-433 -439 0
-433 -440 0
-433 -441 0
-433 -442 0
-433 -443 0
-433 -444 0
-433 -445 0
-433 -446 0
-433 -447 0
-433 -448 0
-433 -449 0
-433 -450 0
-433 -451 0
-433 -452 0
-433 -453 0
-433 -454 0
-433 -455 0
-434 -435 0
-434 -436 0
-434 -437 0
-434 -438 0
-434 -439 0
-434 -440 0
-434 -441 0
-434 -442 0
-434 -443 0
-434 -444 0
-434 -445 0
-434 -446 0
-434 -447 0
-434 -448 0
-434 -449 0
-434 -450 0
-434 -451 0
-434 -452 0
-434 -453 0
-434 -454 0
-434 -455 0
-435 -436 0
-435 -437 0
-435 -438 0
-435 -439 0
-435 -440 0
-435 -441 0
-435 -442 0
-435 -443 0
-435 -444 0
-435 -445 0
-435 -446 0
-435 -447 0
-435 -448 0
-435 -449 0
-435 -450 0
-435 -451 0
-435 -452 0
-435 -453 0
-435 -454 0
-435 -455 0
-436 -437 0
-436 -438 0
-436 -439 0
-436 -440 0
-436 -441 0
-436 -442 0
-436 -443 0
-436 -444 0
-436 -445 0
-436 -446 0
-436 -447 0
-436 -448 0
-436 -449 0
-436 -450 0
-436 -451 0
-436 -452 0
-436 -453 0
-436 -454 0
-436 -455 0
-437 -438 0
-437 -439 0
-437 -440 0
-437 -441 0
-437 -442 0
-437 -443 0
-437 -444 0
-437 -445 0
-437 -446 0
-437 -447 0
-437 -448 0
-437 -449 0
-437 -450 0
-437 -451 0
-437 -452 0
-437 -453 0
-437 -454 0
-437 -455 0
-438 -439 0
-438 -440 0
-438 -441 0
-438 -442 0
-438 -443 0
-438 -444 0
-438 -445 0
-438 -446 0
-438 -447 0
-438 -448 0
-438 -449 0
-438 -450 0
-438 -451 0
-438 -452 0
-438 -453 0
-438 -454 0
-438 -455 0
-439 -440 0
-439 -441 0
-439 -442 0
-439 -443 0
-439 -444 0
-439 -445 0
-439 -446 0
-439 -447 0
-439 -448 0
-439 -449 0
-439 -450 0
-439 -451 0
-439 -452 0
-439 -453 0
-439 -454 0
-439 -455 0
-440 -441 0
-440 -442 0
-440 -443 0
-440 -444 0
-440 -445 0
-440 -446 0
-440 -447 0
-440 -448 0
-440 -449 0
-440 -450 0
-440 -451 0
-440 -452 0
-440 -453 0
-440 -454 0
-440 -455 0
-441 -442 0
-441 -443 0
-441 -444 0
-441 -445 0
-441 -446 0
-441 -447 0
-441 -448 0
-441 -449 0
-441 -450 0
-441 -451 0
-441 -452 0
-441 -453 0
-441 -454 0
-441 -455 0
-442 -443 0
-442 -444 0
-442 -445 0
-442 -446 0
-442 -447 0
-442 -448 0
-442 -449 0
-442 -450 0
-442 -451 0
-442 -452 0
-442 -453 0
-442 -454 0
-442 -455 0
-443 -444 0
-443 -445 0
-443 -446 0
-443 -447 0
-443 -448 0
-443 -449 0
-443 -450 0
-443 -451 0
-443 -452 0
-443 -453 0
-443 -454 0
-443 -455 0
-444 -445 0
-444 -446 0
-444 -447 0
-444 -448 0
-444 -449 0
-444 -450 0
-444 -451 0
-444 -452 0
-444 -453 0
-444 -454 0
-444 -455 0
-445 -446 0
-445 -447 0
-445 -448 0
-445 -449 0
-445 -450 0
-445 -451 0
-445 -452 0
-445 -453 0
-445 -454 0
-445 -455 0
-446 -447 0
-446 -448 0
-446 -449 0
-446 -450 0
-446 -451 0
-446 -452 0
-446 -453 0
-446 -454 0
-446 -455 0
-447 -448 0
-447 -449 0
-447 -450 0
-447 -451 0
-447 -452 0
-447 -453 0
-447 -454 0
-447 -455 0
-448 -449 0
-448 -450 0
-448 -451 0
-448 -452 0
-448 -453 0
-448 -454 0
-448 -455 0
-449 -450 0
-449 -451 0
-449 -452 0
-449 -453 0
-449 -454 0
-449 -455 0
-450 -451 0
-450 -452 0
-450 -453 0
-450 -454 0
-450 -455 0
-451 -452 0
-451 -453 0
-451 -454 0
-451 -455 0
-452 -453 0
-452 -454 0
-452 -455 0
-453 -454 0
-453 -455 0
-454 -455 0
-407 114 431 0
-407 -114 432 0
-408 114 432 0
-408 -114 433 0
-409 114 433 0
-409 -114 434 0
-410 114 434 0
-410 -114 435 0
-411 114 435 0
-411 -114 436 0
-412 114 436 0
-412 -114 437 0
-413 114 437 0
-413 -114 438 0
-414 114 438 0
-414 -114 439 0
-415 114 439 0
-415 -114 440 0
-416 114 440 0
-416 -114 441 0
-417 114 441 0
-417 -114 442 0
-418 114 442 0
-418 -114 443 0
-419 114 443 0
-419 -114 444 0
-420 114 444 0
-420 -114 445 0
-421 114 445 0
-421 -114 446 0
-422 114 446 0
-422 -114 447 0
-423 114 447 0
-423 -114 448 0
-424 114 448 0
-424 -114 449 0
-425 114 449 0
-425 -114 450 0
-426 114 450 0
-426 -114 451 0
-427 114 451 0
-427 -114 452 0
-428 114 452 0
-428 -114 453 0
-429 114 453 0
-429 -114 454 0
-430 114 454 0
-430 -114 455 0
456 457 458 459 460 461 462 463 464 465 466 467 468 469 470 471 472 473 474 475 476 477 478 479 480 481 0
-456 -457 0
-456 -458 0
-456 -459 0
-456 -460 0
-456 -461 0
-456 -462 0
-456 -463 0
-456 -464 0
-456 -465 0
-456 -466 0
-456 -467 0
-456 -468 0
-456 -469 0
-456 -470 0
-456 -471 0
-456 -472 0
-456 -473 0
-456 -474 0
-456 -475 0
-456 -476 0
-456 -477 0
-456 -478 0
-456 -479 0
-456 -480 0
-456 -481 0
-457 -458 0
-457 -459 0
-457 -460 0
-457 -461 0
-457 -462 0
-457 -463 0
-457 -464 0
-457 -465 0
-457 -466 0
-457 -467 0
-457 -468 0
-457 -469 0
-457 -470 0
-457 -471 0
-457 -472 0
-457 -473 0
-457 -474 0
-457 -475 0
-457 -476 0
-457 -477 0
-457 -478 0
-457 -479 0
-457 -480 0
-457 -481 0
-458 -459 0
-458 -460 0
-458 -461 0
-458 -462 0
-458 -463 0
-458 -464 0
-458 -465 0
-458 -466 0
-458 -467 0
-458 -468 0
-458 -469 0
-458 -470 0
-458 -471 0
-458 -472 0
-458 -473 0
-458 -474 0
-458 -475 0
-458 -476 0
-458 -477 0
-458 -478 0
-458 -479 0
-458 -480 0
-458 -481 0
-459 -460 0
-459 -461 0
-459 -462 0
-459 -463 0
-459 -464 0
-459 -465 0
-459 -466 0
-459 -467 0
-459 -468 0
-459 -469 0
-459 -470 0
-459 -471 0
-459 -472 0
-459 -473 0
-459 -474 0
-459 -475 0
-459 -476 0
-459 -477 0
-459 -478 0
-459 -479 0
-459 -480 0
-459 -481 0
-460 -461 0
-460 -462 0
-460 -463 0
-460 -464 0
-460 -465 0
-460 -466 0
-460 -467 0
-460 -468 0
-460 -469 0
-460 -470 0
-460 -471 0
-460 -472 0
-460 -473 0
-460 -474 0
-460 -475 0
-460 -476 0
-460 -477 0
-460 -478 0
-460 -479 0
-460 -480 0
-460 -481 0
-461 -462 0
-461 -463 0
-461 -464 0
-461 -465 0
-461 -466 0
-461 -467 0
-461 -468 0
-461 -469 0
-461 -470 0
-461 -471 0
-461 -472 0
-461 -473 0
-461 -474 0
-461 -475 0
-461 -476 0
-461 -477 0
-461 -478 0
-461 -479 0
-461 -480 0
-461 -481 0
-462 -463 0
-462 -464 0
-462 -465 0
-462 -466 0
-462 -467 0
-462 -468 0
-462 -469 0
-462 -470 0
-462 -471 0
-462 -472 0
-462 -473 0
-462 -474 0
-462 -475 0
-462 -476 0
-462 -477 0
-462 -478 0
-462 -479 0
-462 -480 0
-462 -481 0
-463 -464 0
-463 -465 0
-463 -466 0
-463 -467 0
-463 -468 0
-463 -469 0
-463 -470 0
-463 -471 0
-463 -472 0
-463 -473 0
-463 -474 0
-463 -475 0
-463 -476 0
-463 -477 0
-463 -478 0
-463 -479 0
-463 -480 0
-463 -481 0
-464 -465 0
-464 -466 0
-464 -467 0
-464 -468 0
-464 -469 0
-464 -470 0
-464 -471 0
-464 -472 0
-464 -473 0
-464 -474 0
-464 -475 0
-464 -476 0
-464 -477 0
-464 -478 0
-464 -479 0
-464 -480 0
-464 -481 0
-465 -466 0
-465 -467 0
-465 -468 0
-465 -469 0
-465 -470 0
-465 -471 0
-465 -472 0
-465 -473 0
-465 -474 0
-465 -475 0
-465 -476 0
-465 -477 0
-465 -478 0
-465 -479 0
-465 -480 0
-465 -481 0
-466 -467 0
-466 -468 0
-466 -469 0
-466 -470 0
-466 -471 0
-466 -472 0
-466 -473 0
-466 -474 0
-466 -475 0
-466 -476 0
-466 -477 0
-466 -478 0
-466 -479 0
-466 -480 0
-466 -481 0
-467 -468 0
-467 -469 0
-467 -470 0
-467 -471 0
-467 -472 0
-467 -473 0
-467 -474 0
-467 -475 0
-467 -476 0
-467 -477 0
-467 -478 0
-467 -479 0
-467 -480 0
-467 -481 0
-468 -469 0
-468 -470 0
-468 -471 0
-468 -472 0
-468 -473 0
-468 -474 0
-468 -475 0
-468 -476 0
-468 -477 0
-468 -478 0
-468 -479 0
-468 -480 0
-468 -481 0
-469 -470 0
-469 -471 0
-469 -472 0
-469 -473 0
-469 -474 0
-469 -475 0
-469 -476 0
-469 -477 0
-469 -478 0
-469 -479 0
-469 -480 0
-469 -481 0
-470 -471 0
-470 -472 0
-470 -473 0
-470 -474 0
-470 -475 0
-470 -476 0
-470 -477 0
-470 -478 0
-470 -479 0
-470 -480 0
-470 -481 0
-471 -472 0
-471 -473 0
-471 -474 0
-471 -475 0
-471 -476 0
-471 -477 0
-471 -478 0
-471 -479 0
-471 -480 0
-471 -481 0
-472 -473 0
-472 -474 0
-472 -475 0
-472 -476 0
-472 -477 0
-472 -478 0
-472 -479 0
-472 -480 0
-472 -481 0
-473 -474 0
-473 -475 0
-473 -476 0
-473 -477 0
-473 -478 0
-473 -479 0
-473 -480 0
-473 -481 0
-474 -475 0
-474 -476 0
-474 -477 0
-474 -478 0
-474 -479 0
-474 -480 0
-474 -481 0
-475 -476 0
-475 -477 0
-475 -478 0
-475 -479 0
-475 -480 0
-475 -481 0
-476 -477 0
-476 -478 0
-476 -479 0
-476 -480 0
-476 -481 0
-477 -478 0
-477 -479 0
-477 -480 0
-477 -481 0
-478 -479 0
-478 -480 0
-478 -481 0
-479 -480 0
-479 -481 0
-480 -481 0
-431 115 456 0
-431 -115 457 0
-432 115 457 0
-432 -115 458 0
-433 115 458 0
-433 -115 459 0
-434 115 459 0
-434 -115 460 0
-435 115 460 0
-435 -115 461 0
-436 115 461 0
-436 -115 462 0
-437 115 462 0
-437 -115 463 0
-438 115 463 0
-438 -115 464 0
-439 115 464 0
-439 -115 465 0
-440 115 465 0
-440 -115 466 0
-441 115 466 0
-441 -115 467 0
-442 115 467 0
-442 -115 468 0
-443 115 468 0
-443 -115 469 0
-444 115 469 0
-444 -115 470 0
-445 115 470 0
-445 -115 471 0
-446 115 471 0
-446 -115 472 0
-447 115 472 0
-447 -115 473 0
-448 115 473 0
-448 -115 474 0
-449 115 474 0
-449 -115 475 0
-450 115 475 0
-450 -115 476 0
-451 115 476 0
-451 -115 477 0
-452 115 477 0
-452 -115 478 0
-453 115 478 0
-453 -115 479 0
-454 115 479 0
-454 -115 480 0
-455 115 480 0
-455 -115 481 0
482 483 484 485 486 487 488 489 490 491 492 493 494 495 496 497 498 499 500 501 502 503 504 505 506 507 508 0
-482 -483 0
-482 -484 0
-482 -485 0
-482 -486 0
-482 -487 0
-482 -488 0
-482 -489 0
-482 -490 0
-482 -491 0
-482 -492 0
-482 -493 0
-482 -494 0
-482 -495 0
-482 -496 0
-482 -497 0
-482 -498 0
-482 -499 0
-482 -500 0
-482 -501 0
-482 -502 0
-482 -503 0
-482 -504 0
-482 -505 0
-482 -506 0
-482 -507 0
-482 -508 0
-483 -484 0
-483 -485 0
-483 -486 0
-483 -487 0
-483 -488 0
-483 -489 0
-483 -490 0
-483 -491 0
-483 -492 0
-483 -493 0
-483 -494 0
-483 -495 0
-483 -496 0
-483 -497 0
-483 -498 0
-483 -499 0
-483 -500 0
-483 -501 0
-483 -502 0
-483 -503 0
-483 -504 0
-483 -505 0
-483 -506 0
-483 -507 0
-483 -508 0
-484 -485 0
-484 -486 0
-484 -487 0
-484 -488 0
-484 -489 0
-484 -490 0
-484 -491 0
-484 -492 0
-484 -493 0
-484 -494 0
-484 -495 0
-484 -496 0
-484 -497 0
-484 -498 0
-484 -499 0
-484 -500 0
-484 -501 0
-484 -502 0
-484 -503 0
-484 -504 0
-484 -505 0
-484 -506 0
-484 -507 0
-484 -508 0
-485 -486 0
-485 -487 0
-485 -488 0
-485 -489 0
-485 -490 0
-485 -491 0
-485 -492 0
-485 -493 0
-485 -494 0
-485 -495 0
-485 -496 0
-485 -497 0
-485 -498 0
-485 -499 0
-485 -500 0
-485 -501 0
-485 -502 0
-485 -503 0
-485 -504 0
-485 -505 0
-485 -506 0
-485 -507 0
-485 -508 0
-486 -487 0
-486 -488 0
-486 -489 0
-486 -490 0
-486 -491 0
-486 -492 0
-486 -493 0
-486 -494 0
-486 -495 0
-486 -496 0
-486 -497 0
-486 -498 0
-486 -499 0
-486 -500 0
-486 -501 0
-486 -502 0
-486 -503 0
-486 -504 0
-486 -505 0
-486 -506 0
-486 -507 0
-486 -508 0
-487 -488 0
-487 -489 0
-487 -490 0
-487 -491 0
-487 -492 0
-487 -493 0
-487 -494 0
-487 -495 0
-487 -496 0
-487 -497 0
-487 -498 0
-487 -499 0
-487 -500 0
-487 -501 0
-487 -502 0
-487 -503 0
-487 -504 0
-487 -505 0
-487 -506 0
-487 -507 0
-487 -508 0
-488 -489 0
-488 -490 0
-488 -491 0
-488 -492 0
-488 -493 0
-488 -494 0
-488 -495 0
-488 -496 0
-488 -497 0
-488 -498 0
-488 -499 0
-488 -500 0
-488 -501 0
-488 -502 0
-488 -503 0
-488 -504 0
-488 -505 0
-488 -506 0
-488 -507 0
-488 -508 0
-489 -490 0
-489 -491 0
-489 -492 0
-489 -493 0
-489 -494 0
-489 -495 0
-489 -496 0
-489 -497 0
-489 -498 0
-489 -499 0
-489 -500 0
-489 -501 0
-489 -502 0
-489 -503 0
-489 -504 0
-489 -505 0
-489 -506 0
-489 -507 0
-489 -508 0
-490 -491 0
-490 -492 0
-490 -493 0
-490 -494 0
-490 -495 0
-490 -496 0
-490 -497 0
-490 -498 0
-490 -499 0
-490 -500 0
-490 -501 0
-490 -502 0
-490 -503 0
-490 -504 0
-490 -505 0
-490 -506 0
-490 -507 0
-490 -508 0
-491 -492 0
-491 -493 0
-491 -494 0
-491 -495 0
-491 -496 0
-491 -497 0
-491 -498 0
-491 -499 0
-491 -500 0
-491 -501 0
-491 -502 0
-491 -503 0
-491 -504 0
-491 -505 0
-491 -506 0
-491 -507 0
-491 -508 0
-492 -493 0
-492 -494 0
-492 -495 0
-492 -496 0
-492 -497 0
-492 -498 0
-492 -499 0
-492 -500 0
-492 -501 0
-492 -502 0
-492 -503 0
-492 -504 0
-492 -505 0
-492 -506 0
-492 -507 0
-492 -508 0
-493 -494 0
-493 -495 0
-493 -496 0
-493 -497 0
-493 -498 0
-493 -499 0
-493 -500 0
-493 -501 0
-493 -502 0
-493 -503 0
-493 -504 0
-493 -505 0
-493 -506 0
-493 -507 0
-493 -508 0
-494 -495 0
-494 -496 0
-494 -497 0
-494 -498 0
-494 -499 0
-494 -500 0
-494 -501 0
-494 -502 0
-494 -503 0
-494 -504 0
-494 -505 0
-494 -506 0
-494 -507 0
-494 -508 0
-495 -496 0
-495 -497 0
-495 -498 0
-495 -499 0
-495 -500 0
-495 -501 0
-495 -502 0
-495 -503 0
-495 -504 0
-495 -505 0
-495 -506 0
-495 -507 0
-495 -508 0
-496 -497 0
-496 -498 0
-496 -499 0
-496 -500 0
-496 -501 0
-496 -502 0
-496 -503 0
-496 -504 0
-496 -505 0
-496 -506 0
-496 -507 0
-496 -508 0
-497 -498 0
-497 -499 0
-497 -500 0
-497 -501 0
-497 -502 0
-497 -503 0
-497 -504 0
-497 -505 0
-497 -506 0
-497 -507 0
-497 -508 0
-498 -499 0
-498 -500 0
-498 -501 0
-498 -502 0
-498 -503 0
-498 -504 0
-498 -505 0
-498 -506 0
-498 -507 0
-498 -508 0
-499 -500 0
-499 -501 0
-499 -502 0
-499 -503 0
-499 -504 0
-499 -505 0
-499 -506 0
-499 -507 0
-499 -508 0
-500 -501 0
-500 -502 0
-500 -503 0
-500 -504 0
-500 -505 0
-500 -506 0
-500 -507 0
-500 -508 0
-501 -502 0
-501 -503 0
-501 -504 0
-501 -505 0
-501 -506 0
-501 -507 0
-501 -508 0
-502 -503 0
-502 -504 0
-502 -505 0
-502 -506 0
-502 -507 0
-502 -508 0
-503 -504 0
-503 -505 0
-503 -506 0
-503 -507 0
-503 -508 0
-504 -505 0
-504 -506 0
-504 -507 0
-504 -508 0
-505 -506 0
-505 -507 0
-505 -508 0
-506 -507 0
-506 -508 0
-507 -508 0
-456 116 482 0
-456 -116 483 0
-457 116 483 0
-457 -116 484 0
-458 116 484 0
-458 -116 485 0
-459 116 485 0
-459 -116 486 0
-460 116 486 0
-460 -116 487 0
-461 116 487 0
-461 -116 488 0
-462 116 488 0
-462 -116 489 0
-463 116 489 0
-463 -116 490 0
-464 116 490 0
-464 -116 491 0
-465 116 491 0
-465 -116 492 0
-466 116 492 0
-466 -116 493 0
-467 116 493 0
-467 -116 494 0
-468 116 494 0
-468 -116 495 0
-469 116 495 0
-469 -116 496 0
-470 116 496 0
-470 -116 497 0
-471 116 497 0
-471 -116 498 0
-472 116 498 0
-472 -116 499 0
-473 116 499 0
-473 -116 500 0
-474 116 500 0
-474 -116 501 0
-475 116 501 0
-475 -116 502 0
-476 116 502 0
-476 -116 503 0
-477 116 503 0
-477 -116 504 0
-478 116 504 0
-478 -116 505 0
-479 116 505 0
-479 -116 506 0
-480 116 506 0
-480 -116 507 0
-481 116 507 0
-481 -116 508 0
509 510 511 512 513 514 515 516 517 518 519 520 521 522 523 524 525 526 527 528 529 530 531 532 533 534 535 536 0
-509 -510 0
-509 -511 0
-509 -512 0
-509 -513 0
-509 -514 0
-509 -515 0
-509 -516 0
-509 -517 0
-509 -518 0
-509 -519 0
-509 -520 0
-509 -521 0
-509 -522 0
-509 -523 0
-509 -524 0
-509 -525 0
-509 -526 0
-509 -527 0
-509 -528 0
-509 -529 0
-509 -530 0
-509 -531 0
-509 -532 0
-509 -533 0
-509 -534 0
-509 -535 0
-509 -536 0
-510 -511 0
-510 -512 0
-510 -513 0
-510 -514 0
-510 -515 0
-510 -516 0
-510 -517 0
-510 -518 0
-510 -519 0
-510 -520 0
-510 -521 0
-510 -522 0
-510 -523 0
-510 -524 0
-510 -525 0
-510 -526 0
-510 -527 0
-510 -528 0
-510 -529 0
-510 -530 0
-510 -531 0
-510 -532 0
-510 -533 0
-510 -534 0
-510 -535 0
-510 -536 0
-511 -512 0
-511 -513 0
-511 -514 0
-511 -515 0
-511 -516 0
-511 -517 0
-511 -518 0
-511 -519 0
-511 -520 0
-511 -521 0
-511 -522 0
-511 -523 0
-511 -524 0
-511 -525 0
-511 -526 0
-511 -527 0
-511 -528 0
-511 -529 0
-511 -530 0
-511 -531 0
-511 -532 0
-511 -533 0
-511 -534 0
-511 -535 0
-511 -536 0
-512 -513 0
-512 -514 0
-512 -515 0
-512 -516 0
-512 -517 0
-512 -518 0
-512 -519 0
-512 -520 0
-512 -521 0
-512 -522 0
-512 -523 0
-512 -524 0
-512 -525 0
-512 -526 0
-512 -527 0
-512 -528 0
-512 -529 0
-512 -530 0
-512 -531 0
-512 -532 0
-512 -533 0
-512 -534 0
-512 -535 0
-512 -536 0
-513 -514 0
-513 -515 0
-513 -516 0
-513 -517 0
-513 -518 0
-513 -519 0
-513 -520 0
-513 -521 0
-513 -522 0
-513 -523 0
-513 -524 0
-513 -525 0
-513 -526 0
-513 -527 0
-513 -528 0
-513 -529 0
-513 -530 0
-513 -531 0
-513 -532 0
-513 -533 0
-513 -534 0
-513 -535 0
-513 -536 0
-514 -515 0
-514 -516 0
-514 -517 0
-514 -518 0
-514 -519 0
-514 -520 0
-514 -521 0
-514 -522 0
-514 -523 0
-514 -524 0
-514 -525 0
-514 -526 0
-514 -527 0
-514 -528 0
-514 -529 0
-514 -530 0
-514 -531 0
-514 -532 0
-514 -533 0
-514 -534 0
-514 -535 0
-514 -536 0
-515 -516 0
-515 -517 0
-515 -518 0
-515 -519 0
-515 -520 0
-515 -521 0
-515 -522 0
-515 -523 0
-515 -524 0
-515 -525 0
-515 -526 0
-515 -527 0
-515 -528 0
-515 -529 0
-515 -530 0
-515 -531 0
-515 -532 0
-515 -533 0
-515 -534 0
-515 -535 0
-515 -536 0
-516 -517 0
-516 -518 0
-516 -519 0
-516 -520 0
-516 -521 0
-516 -522 0
-516 -523 0
-516 -524 0
-516 -525 0
-516 -526 0
-516 -527 0
-516 -528 0
-516 -529 0
-516 -530 0
-516 -531 0
-516 -532 0
-516 -533 0
-516 -534 0
-516 -535 0
-516 -536 0
-517 -518 0
-517 -519 0
-517 -520 0
-517 -521 0
-517 -522 0
-517 -523 0
-517 -524 0
-517 -525 0
-517 -526 0
-517 -527 0
-517 -528 0
-517 -529 0
-517 -530 0
-517 -531 0
-517 -532 0
-517 -533 0
-517 -534 0
-517 -535 0
-517 -536 0
-518 -519 0
-518 -520 0
-518 -521 0
-518 -522 0
-518 -523 0
-518 -524 0
-518 -525 0
-518 -526 0
-518 -527 0
-518 -528 0
-518 -529 0
-518 -530 0
-518 -531 0
-518 -532 0
-518 -533 0
-518 -534 0
-518 -535 0
-518 -536 0
-519 -520 0
-519 -521 0
-519 -522 0
-519 -523 0
-519 -524 0
-519 -525 0
-519 -526 0
-519 -527 0
-519 -528 0
-519 -529 0
-519 -530 0
-519 -531 0
-519 -532 0
-519 -533 0
-519 -534 0
-519 -535 0
-519 -536 0
-520 -521 0
-520 -522 0
-520 -523 0
-520 -524 0
-520 -525 0
-520 -526 0
-520 -527 0
-520 -528 0
-520 -529 0
-520 -530 0
-520 -531 0
-520 -532 0
-520 -533 0
-520 -534 0
-520 -535 0
-520 -536 0
-521 -522 0
-521 -523 0
-521 -524 0
-521 -525 0
-521 -526 0
-521 -527 0
-521 -528 0
-521 -529 0
-521 -530 0
-521 -531 0
-521 -532 0
-521 -533 0
-521 -534 0
-521 -535 0
-521 -536 0
-522 -523 0
-522 -524 0
-522 -525 0
-522 -526 0
-522 -527 0
-522 -528 0
-522 -529 0
-522 -530 0
-522 -531 0
-522 -532 0
-522 -533 0
-522 -534 0
-522 -535 0
-522 -536 0
-523 -524 0
-523 -525 0
-523 -526 0
-523 -527 0
-523 -528 0
-523 -529 0
-523 -530 0
-523 -531 0
-523 -532 0
-523 -533 0
-523 -534 0
-523 -535 0
-523 -536 0
-524 -525 0
-524 -526 0
-524 -527 0
-524 -528 0
-524 -529 0
-524 -530 0
-524 -531 0
-524 -532 0
-524 -533 0
-524 -534 0
-524 -535 0
-524 -536 0
-525 -526 0
-525 -527 0
-525 -528 0
-525 -529 0
-525 -530 0
-525 -531 0
-525 -532 0
-525 -533 0
-525 -534 0
-525 -535 0
-525 -536 0
-526 -527 0
-526 -528 0
-526 -529 0
-526 -530 0
-526 -531 0
-526 -532 0
-526 -533 0
-526 -534 0
-526 -535 0
-526 -536 0
-527 -528 0
-527 -529 0
-527 -530 0
-527 -531 0
-527 -532 0
-527 -533 0
-527 -534 0
-527 -535 0
-527 -536 0
-528 -529 0
-528 -530 0
-528 -531 0
-528 -532 0
-528 -533 0
-528 -534 0
-528 -535 0
-528 -536 0
-529 -530 0
-529 -531 0
-529 -532 0
-529 -533 0
-529 -534 0
-529 -535 0
-529 -536 0
-530 -531 0
-530 -532 0
-530 -533 0
-530 -534 0
-530 -535 0
-530 -536 0
-531 -532 0
-531 -533 0
-531 -534 0
-531 -535 0
-531 -536 0
-532 -533 0
-532 -534 0
-532 -535 0
-532 -536 0
-533 -534 0
-533 -535 0
-533 -536 0
-534 -535 0
-534 -536 0
-535 -536 0
-482 117 509 0
-482 -117 510 0
-483 117 510 0
-483 -117 511 0
-484 117 511 0
-484 -117 512 0
-485 117 512 0
-485 -117 513 0
-486 117 513 0
-486 -117 514 0
-487 117 514 0
-487 -117 515 0
-488 117 515 0
-488 -117 516 0
-489 117 516 0
-489 -117 517 0
-490 117 517 0
-490 -117 518 0
-491 117 518 0
-491 -117 519 0
-492 117 519 0
-492 -117 520 0
-493 117 520 0
-493 -117 521 0
-494 117 521 0
-494 -117 522 0
-495 117 522 0
-495 -117 523 0
-496 117 523 0
-496 -117 524 0
-497 117 524 0
-497 -117 525 0
-498 117 525 0
-498 -117 526 0
-499 117 526 0
-499 -117 527 0
-500 117 527 0
-500 -117 528 0
-501 117 528 0
-501 -117 529 0
-502 117 529 0
-502 -117 530 0
-503 117 530 0
-503 -117 531 0
-504 117 531 0
-504 -117 532 0
-505 117 532 0
-505 -117 533 0
-506 117 533 0
-506 -117 534 0
-507 117 534 0
-507 -117 535 0
-508 117 535 0
-508 -117 536 0
537 538 539 540 541 542 543 544 545 546 547 548 549 550 551 552 553 554 555 556 557 558 559 560 561 562 563 564 565 0
-537 -538 0
-537 -539 0
-537 -540 0
-537 -541 0
-537 -542 0
-537 -543 0
-537 -544 0
-537 -545 0
-537 -546 0
-537 -547 0
-537 -548 0
-537 -549 0
-537 -550 0
-537 -551 0
-537 -552 0
-537 -553 0
-537 -554 0
-537 -555 0
-537 -556 0
-537 -557 0
-537 -558 0
-537 -559 0
-537 -560 0
-537 -561 0
-537 -562 0
-537 -563 0
-537 -564 0
-537 -565 0
-538 -539 0
-538 -540 0
-538 -541 0
-538 -542 0
-538 -543 0
-538 -544 0
-538 -545 0
-538 -546 0
-538 -547 0
-538 -548 0
-538 -549 0
-538 -550 0
-538 -551 0
-538 -552 0
-538 -553 0
-538 -554 0
-538 -555 0
-538 -556 0
-538 -557 0
-538 -558 0
-538 -559 0
-538 -560 0
-538 -561 0
-538 -562 0
-538 -563 0
-538 -564 0
-538 -565 0
-539 -540 0
-539 -541 0
-539 -542 0
-539 -543 0
-539 -544 0
-539 -545 0
-539 -546 0
-539 -547 0
-539 -548 0
-539 -549 0
-539 -550 0
-539 -551 0
-539 -552 0
-539 -553 0
-539 -554 0
-539 -555 0
-539 -556 0
-539 -557 0
-539 -558 0
-539 -559 0
-539 -560 0
-539 -561 0
-539 -562 0
-539 -563 0
-539 -564 0
-539 -565 0
-540 -541 0
-540 -542 0
-540 -543 0
-540 -544 0
-540 -545 0
-540 -546 0
-540 -547 0
-540 -548 0
-540 -549 0
-540 -550 0
-540 -551 0
-540 -552 0
-540 -553 0
-540 -554 0
-540 -555 0
-540 -556 0
-540 -557 0
-540 -558 0
-540 -559 0
-540 -560 0
-540 -561 0
-540 -562 0
-540 -563 0
-540 -564 0
-540 -565 0
-541 -542 0
-541 -543 0
-541 -544 0
-541 -545 0
-541 -546 0
-541 -547 0
-541 -548 0
-541 -549 0
-541 -550 0
-541 -551 0
-541 -552 0
-541 -553 0
-541 -554 0
-541 -555 0
-541 -556 0
-541 -557 0
-541 -558 0
-541 -559 0
-541 -560 0
-541 -561 0
-541 -562 0
-541 -563 0
-541 -564 0
-541 -565 0
-542 -543 0
-542 -544 0
-542 -545 0
-542 -546 0
-542 -547 0
-542 -548 0
-542 -549 0
-542 -550 0
-542 -551 0
-542 -552 0
-542 -553 0
-542 -554 0
-542 -555 0
-542 -556 0
-542 -557 0
-542 -558 0
-542 -559 0
-542 -560 0
-542 -561 0
-542 -562 0
-542 -563 0
-542 -564 0
-542 -565 0
-543 -544 0
-543 -545 0
-543 -546 0
-543 -547 0
-543 -548 0
-543 -549 0
-543 -550 0
-543 -551 0
-543 -552 0
-543 -553 0
-543 -554 0
-543 -555 0
-543 -556 0
-543 -557 0
-543 -558 0
-543 -559 0
-543 -560 0
-543 -561 0
-543 -562 0
-543 -563 0
-543 -564 0
-543 -565 0
-544 -545 0
-544 -546 0
-544 -547 0
-544 -548 0
-544 -549 0
-544 -550 0
-544 -551 0
-544 -552 0
-544 -553 0
-544 -554 0
-544 -555 0
-544 -556 0
-544 -557 0
-544 -558 0
-544 -559 0
-544 -560 0
-544 -561 0
-544 -562 0
-544 -563 0
-544 -564 0
-544 -565 0
-545 -546 0
-545 -547 0
-545 -548 0
-545 -549 0
-545 -550 0
-545 -551 0
-545 -552 0
-545 -553 0
-545 -554 0
-545 -555 0
-545 -556 0
-545 -557 0
-545 -558 0
-545 -559 0
-545 -560 0
-545 -561 0
-545 -562 0
-545 -563 0
-545 -564 0
-545 -565 0
-546 -547 0
-546 -548 0
-546 -549 0
-546 -550 0
-546 -551 0
-546 -552 0
-546 -553 0
-546 -554 0
-546 -555 0
-546 -556 0
-546 -557 0
-546 -558 0
-546 -559 0
-546 -560 0
-546 -561 0
-546 -562 0
-546 -563 0
-546 -564 0
-546 -565 0
-547 -548 0
-547 -549 0
-547 -550 0
-547 -551 0
-547 -552 0
-547 -553 0
-547 -554 0
-547 -555 0
-547 -556 0
-547 -557 0
-547 -558 0
-547 -559 0
-547 -560 0
-547 -561 0
-547 -562 0
-547 -563 0
-547 -564 0
-547 -565 0
-548 -549 0
-548 -550 0
-548 -551 0
-548 -552 0
-548 -553 0
-548 -554 0
-548 -555 0
-548 -556 0
-548 -557 0
-548 -558 0
-548 -559 0
-548 -560 0
-548 -561 0
-548 -562 0
-548 -563 0
-548 -564 0
-548 -565 0
-549 -550 0
-549 -551 0
-549 -552 0
-549 -553 0
-549 -554 0
-549 -555 0
-549 -556 0
-549 -557 0
-549 -558 0
-549 -559 0
-549 -560 0
-549 -561 0
-549 -562 0
-549 -563 0
-549 -564 0
-549 -565 0
-550 -551 0
-550 -552 0
-550 -553 0
-550 -554 0
-550 -555 0
-550 -556 0
-550 -557 0
-550 -558 0
-550 -559 0
-550 -560 0
-550 -561 0
-550 -562 0
-550 -563 0
-550 -564 0
-550 -565 0
-551 -552 0
-551 -553 0
-551 -554 0
-551 -555 0
-551 -556 0
-551 -557 0
-551 -558 0
-551 -559 0
-551 -560 0
-551 -561 0
-551 -562 0
-551 -563 0
-551 -564 0
-551 -565 0
-552 -553 0
-552 -554 0
-552 -555 0
-552 -556 0
-552 -557 0
-552 -558 0
-552 -559 0
-552 -560 0
-552 -561 0
-552 -562 0
-552 -563 0
-552 -564 0
-552 -565 0
-553 -554 0
-553 -555 0
-553 -556 0
-553 -557 0
-553 -558 0
-553 -559 0
-553 -560 0
-553 -561 0
-553 -562 0
-553 -563 0
-553 -564 0
-553 -565 0
-554 -555 0
-554 -556 0
-554 -557 0
-554 -558 0
-554 -559 0
-554 -560 0
-554 -561 0
-554 -562 0
-554 -563 0
-554 -564 0
-554 -565 0
-555 -556 0
-555 -557 0
-555 -558 0
-555 -559 0
-555 -560 0
-555 -561 0
-555 -562 0
-555 -563 0
-555 -564 0
-555 -565 0
-556 -557 0
-556 -558 0
-556 -559 0
-556 -560 0
-556 -561 0
-556 -562 0
-556 -563 0
-556 -564 0
-556 -565 0
-557 -558 0
-557 -559 0
-557 -560 0
-557 -561 0
-557 -562 0
-557 -563 0
-557 -564 0
-557 -565 0
-558 -559 0
-558 -560 0
-558 -561 0
-558 -562 0
-558 -563 0
-558 -564 0
-558 -565 0
-559 -560 0
-559 -561 0
-559 -562 0
-559 -563 0
-559 -564 0
-559 -565 0
-560 -561 0
-560 -562 0
-560 -563 0
-560 -564 0
-560 -565 0
-561 -562 0
-561 -563 0
-561 -564 0
-561 -565 0
-562 -563 0
-562 -564 0
-562 -565 0
-563 -564 0
-563 -565 0
-564 -565 0
-509 118 537 0
-509 -118 538 0
-510 118 538 0
-510 -118 539 0
-511 118 539 0
-511 -118 540 0
-512 118 540 0
-512 -118 541 0
-513 118 541 0
-513 -118 542 0
-514 118 542 0
-514 -118 543 0
-515 118 543 0
-515 -118 544 0
-516 118 544 0
-516 -118 545 0
-517 118 545 0
-517 -118 546 0
-518 118 546 0
-518 -118 547 0
-519 118 547 0
-519 -118 548 0
-520 118 548 0
-520 -118 549 0
-521 118 549 0
-521 -118 550 0
-522 118 550 0
-522 -118 551 0
-523 118 551 0
-523 -118 552 0
-524 118 552 0
-524 -118 553 0
-525 118 553 0
-525 -118 554 0
-526 118 554 0
-526 -118 555 0
-527 118 555 0
-527 -118 556 0
-528 118 556 0
-528 -118 557 0
-529 118 557 0
-529 -118 558 0
-530 118 558 0
-530 -118 559 0
-531 118 559 0
-531 -118 560 0
-532 118 560 0
-532 -118 561 0
-533 118 561 0
-533 -118 562 0
-534 118 562 0
-534 -118 563 0
-535 118 563 0
-535 -118 564 0
-536 118 564 0
-536 -118 565 0
566 567 568 569 570 571 572 573 574 575 576 577 578 579 580 581 582 583 584 585 586 587 588 589 590 591 592 593 594 595 0
-566 -567 0
-566 -568 0
-566 -569 0
-566 -570 0
-566 -571 0
-566 -572 0
-566 -573 0
-566 -574 0
-566 -575 0
-566 -576 0
-566 -577 0
-566 -578 0
-566 -579 0
-566 -580 0
-566 -581 0
-566 -582 0
-566 -583 0
-566 -584 0
-566 -585 0
-566 -586 0
-566 -587 0
-566 -588 0
-566 -589 0
-566 -590 0
-566 -591 0
-566 -592 0
-566 -593 0
-566 -594 0
-566 -595 0
-567 -568 0
-567 -569 0
-567 -570 0
-567 -571 0
-567 -572 0
-567 -573 0
-567 -574 0
-567 -575 0
-567 -576 0
-567 -577 0
-567 -578 0
-567 -579 0
-567 -580 0
-567 -581 0
-567 -582 0
-567 -583 0
-567 -584 0
-567 -585 0
-567 -586 0
-567 -587 0
-567 -588 0
-567 -589 0
-567 -590 0
-567 -591 0
-567 -592 0
-567 -593 0
-567 -594 0
-567 -595 0
-568 -569 0
-568 -570 0
-568 -571 0
-568 -572 0
-568 -573 0
-568 -574 0
-568 -575 0
-568 -576 0
-568 -577 0
-568 -578 0
-568 -579 0
-568 -580 0
-568 -581 0
-568 -582 0
-568 -583 0
-568 -584 0
-568 -585 0
-568 -586 0
-568 -587 0
-568 -588 0
-568 -589 0
-568 -590 0
-568 -591 0
-568 -592 0
-568 -593 0
-568 -594 0
-568 -595 0
-569 -570 0
-569 -571 0
-569 -572 0
-569 -573 0
-569 -574 0
-569 -575 0
-569 -576 0
-569 -577 0
-569 -578 0
-569 -579 0
-569 -580 0
-569 -581 0
-569 -582 0
-569 -583 0
-569 -584 0
-569 -585 0
-569 -586 0
-569 -587 0
-569 -588 0
-569 -589 0
-569 -590 0
-569 -591 0
-569 -592 0
-569 -593 0
-569 -594 0
-569 -595 0
-570 -571 0
-570 -572 0
-570 -573 0
-570 -574 0
-570 -575 0
-570 -576 0
-570 -577 0
-570 -578 0
-570 -579 0
-570 -580 0
-570 -581 0
-570 -582 0
-570 -583 0
-570 -584 0
-570 -585 0
-570 -586 0
-570 -587 0
-570 -588 0
-570 -589 0
-570 -590 0
-570 -591 0
-570 -592 0
-570 -593 0
-570 -594 0
-570 -595 0
-571 -572 0
-571 -573 0
-571 -574 0
-571 -575 0
-571 -576 0
-571 -577 0
-571 -578 0
-571 -579 0
-571 -580 0
-571 -581 0
-571 -582 0
-571 -583 0
-571 -584 0
-571 -585 0
-571 -586 0
-571 -587 0
-571 -588 0
-571 -589 0
-571 -590 0
-571 -591 0
-571 -592 0
-571 -593 0
-571 -594 0
-571 -595 0
-572 -573 0
-572 -574 0
-572 -575 0
-572 -576 0
-572 -577 0
-572 -578 0
-572 -579 0
-572 -580 0
-572 -581 0
-572 -582 0
-572 -583 0
-572 -584 0
-572 -585 0
-572 -586 0
-572 -587 0
-572 -588 0
-572 -589 0
-572 -590 0
-572 -591 0
-572 -592 0
-572 -593 0
-572 -594 0
-572 -595 0
-573 -574 0
-573 -575 0
-573 -576 0
-573 -577 0
-573 -578 0
-573 -579 0
-573 -580 0
-573 -581 0
-573 -582 0
-573 -583 0
-573 -584 0
-573 -585 0
-573 -586 0
-573 -587 0
-573 -588 0
-573 -589 0
-573 -590 0
-573 -591 0
-573 -592 0
-573 -593 0
-573 -594 0
-573 -595 0
-574 -575 0
-574 -576 0
-574 -577 0
-574 -578 0
-574 -579 0
-574 -580 0
-574 -581 0
-574 -582 0
-574 -583 0
-574 -584 0
-574 -585 0
-574 -586 0
-574 -587 0
-574 -588 0
-574 -589 0
-574 -590 0
-574 -591 0
-574 -592 0
-574 -593 0
-574 -594 0
-574 -595 0
-575 -576 0
-575 -577 0
-575 -578 0
-575 -579 0
-575 -580 0
-575 -581 0
-575 -582 0
-575 -583 0
-575 -584 0
-575 -585 0
-575 -586 0
-575 -587 0
-575 -588 0
-575 -589 0
-575 -590 0
-575 -591 0
-575 -592 0
-575 -593 0
-575 -594 0
-575 -595 0
-576 -577 0
-576 -578 0
-576 -579 0
-576 -580 0
-576 -581 0
-576 -582 0
-576 -583 0
-576 -584 0
-576 -585 0
-576 -586 0
-576 -587 0
-576 -588 0
-576 -589 0
-576 -590 0
-576 -591 0
-576 -592 0
-576 -593 0
-576 -594 0
-576 -595 0
-577 -578 0
-577 -579 0
-577 -580 0
-577 -581 0
-577 -582 0
-577 -583 0
-577 -584 0
-577 -585 0
-577 -586 0
-577 -587 0
-577 -588 0
-577 -589 0
-577 -590 0
-577 -591 0
-577 -592 0
-577 -593 0
-577 -594 0
-577 -595 0
-578 -579 0
-578 -580 0
-578 -581 0
-578 -582 0
-578 -583 0
-578 -584 0
-578 -585 0
-578 -586 0
-578 -587 0
-578 -588 0
-578 -589 0
-578 -590 0
-578 -591 0
-578 -592 0
-578 -593 0
-578 -594 0
-578 -595 0
-579 -580 0
-579 -581 0
-579 -582 0
-579 -583 0
-579 -584 0
-579 -585 0
-579 -586 0
-579 -587 0
-579 -588 0
-579 -589 0
-579 -590 0
-579 -591 0
-579 -592 0
-579 -593 0
-579 -594 0
-579 -595 0
-580 -581 0
-580 -582 0
-580 -583 0
-580 -584 0
-580 -585 0
-580 -586 0
-580 -587 0
-580 -588 0
-580 -589 0
-580 -590 0
-580 -591 0
-580 -592 0
-580 -593 0
-580 -594 0
-580 -595 0
-581 -582 0
-581 -583 0
-581 -584 0
-581 -585 0
-581 -586 0
-581 -587 0
-581 -588 0
-581 -589 0
-581 -590 0
-581 -591 0
-581 -592 0
-581 -593 0
-581 -594 0
-581 -595 0
-582 -583 0
-582 -584 0
-582 -585 0
-582 -586 0
-582 -587 0
-582 -588 0
-582 -589 0
-582 -590 0
-582 -591 0
-582 -592 0
-582 -593 0
-582 -594 0
-582 -595 0
-583 -584 0
-583 -585 0
-583 -586 0
-583 -587 0
-583 -588 0
-583 -589 0
-583 -590 0
-583 -591 0
-583 -592 0
-583 -593 0
-583 -594 0
-583 -595 0
-584 -585 0
-584 -586 0
-584 -587 0
-584 -588 0
-584 -589 0
-584 -590 0
-584 -591 0
-584 -592 0
-584 -593 0
-584 -594 0
-584 -595 0
-585 -586 0
-585 -587 0
-585 -588 0
-585 -589 0
-585 -590 0
-585 -591 0
-585 -592 0
-585 -593 0
-585 -594 0
-585 -595 0
-586 -587 0
-586 -588 0
-586 -589 0
-586 -590 0
-586 -591 0
-586 -592 0
-586 -593 0
-586 -594 0
-586 -595 0
-587 -588 0
-587 -589 0
-587 -590 0
-587 -591 0
-587 -592 0
-587 -593 0
-587 -594 0
-587 -595 0
-588 -589 0
-588 -590 0
-588 -591 0
-588 -592 0
-588 -593 0
-588 -594 0
-588 -595 0
-589 -590 0
-589 -591 0
-589 -592 0
-589 -593 0
-589 -594 0
-589 -595 0
-590 -591 0
-590 -592 0
-590 -593 0
-590 -594 0
-590 -595 0
-591 -592 0
-591 -593 0
-591 -594 0
-591 -595 0
-592 -593 0
-592 -594 0
-592 -595 0
-593 -594 0
-593 -595 0
-594 -595 0
-537 119 566 0
-537 -119 567 0
-538 119 567 0
-538 -119 568 0
-539 119 568 0
-539 -119 569 0
-540 119 569 0
-540 -119 570 0
-541 119 570 0
-541 -119 571 0
-542 119 571 0
-542 -119 572 0
-543 119 572 0
-543 -119 573 0
-544 119 573 0
-544 -119 574 0
-545 119 574 0
-545 -119 575 0
-546 119 575 0
-546 -119 576 0
-547 119 576 0
-547 -119 577 0
-548 119 577 0
-548 -119 578 0
-549 119 578 0
-549 -119 579 0
-550 119 579 0
-550 -119 580 0
-551 119 580 0
-551 -119 581 0
-552 119 581 0
-552 -119 582 0
-553 119 582 0
-553 -119 583 0
-554 119 583 0
-554 -119 584 0
-555 119 584 0
-555 -119 585 0
-556 119 585 0
-556 -119 586 0
-557 119 586 0
-557 -119 587 0
-558 119 587 0
-558 -119 588 0
-559 119 588 0
-559 -119 589 0
-560 119 589 0
-560 -119 590 0
-561 119 590 0
-561 -119 591 0
-562 119 591 0
-562 -119 592 0
-563 119 592 0
-563 -119 593 0
-564 119 593 0
-564 -119 594 0
-565 119 594 0
-565 -119 595 0
596 597 598 599 600 601 602 603 604 605 606 607 608 609 610 611 612 613 614 615 616 617 618 619 620 621 622 623 624 625 626 0
-596 -597 0
-596 -598 0
-596 -599 0
-596 -600 0
-596 -601 0
-596 -602 0
-596 -603 0
-596 -604 0
-596 -605 0
-596 -606 0
-596 -607 0
-596 -608 0
-596 -609 0
-596 -610 0
-596 -611 0
-596 -612 0
-596 -613 0
-596 -614 0
-596 -615 0
-596 -616 0
-596 -617 0
-596 -618 0
-596 -619 0
-596 -620 0
-596 -621 0
-596 -622 0
-596 -623 0
-596 -624 0
-596 -625 0
-596 -626 0
-597 -598 0
-597 -599 0
-597 -600 0
-597 -601 0
-597 -602 0
-597 -603 0
-597 -604 0
-597 -605 0
-597 -606 0
-597 -607 0
-597 -608 0
-597 -609 0
-597 -610 0
-597 -611 0
-597 -612 0
-597 -613 0
-597 -614 0
-597 -615 0
-597 -616 0
-597 -617 0
-597 -618 0
-597 -619 0
-597 -620 0
-597 -621 0
-597 -622 0
-597 -623 0
-597 -624 0
-597 -625 0
-597 -626 0
-598 -599 0
-598 -600 0
-598 -601 0
-598 -602 0
-598 -603 0
-598 -604 0
-598 -605 0
-598 -606 0
-598 -607 0
-598 -608 0
-598 -609 0
-598 -610 0
-598 -611 0
-598 -612 0
-598 -613 0
-598 -614 0
-598 -615 0
-598 -616 0
-598 -617 0
-598 -618 0
-598 -619 0
-598 -620 0
-598 -621 0
-598 -622 0
-598 -623 0
-598 -624 0
-598 -625 0
-598 -626 0
-599 -600 0
-599 -601 0
-599 -602 0
-599 -603 0
-599 -604 0
-599 -605 0
-599 -606 0
-599 -607 0
-599 -608 0
-599 -609 0
-599 -610 0
-599 -611 0
-599 -612 0
-599 -613 0
-599 -614 0
-599 -615 0
-599 -616 0
-599 -617 0
-599 -618 0
-599 -619 0
-599 -620 0
-599 -621 0
-599 -622 0
-599 -623 0
-599 -624 0
-599 -625 0
-599 -626 0
-600 -601 0
-600 -602 0
-600 -603 0
-600 -604 0
-600 -605 0
-600 -606 0
-600 -607 0
-600 -608 0
-600 -609 0
-600 -610 0
-600 -611 0
-600 -612 0
-600 -613 0
-600 -614 0
-600 -615 0
-600 -616 0
-600 -617 0
-600 -618 0
-600 -619 0
-600 -620 0
-600 -621 0
-600 -622 0
-600 -623 0
-600 -624 0
-600 -625 0
-600 -626 0
-601 -602 0
-601 -603 0
-601 -604 0
-601 -605 0
-601 -606 0
-601 -607 0
-601 -608 0
-601 -609 0
-601 -610 0
-601 -611 0
-601 -612 0
-601 -613 0
-601 -614 0
-601 -615 0
-601 -616 0
-601 -617 0
-601 -618 0
-601 -619 0
-601 -620 0
-601 -621 0
-601 -622 0
-601 -623 0
-601 -624 0
-601 -625 0
-601 -626 0
-602 -603 0
-602 -604 0
-602 -605 0
-602 -606 0
-602 -607 0
-602 -608 0
-602 -609 0
-602 -610 0
-602 -611 0
-602 -612 0
-602 -613 0
-602 -614 0
-602 -615 0
-602 -616 0
-602 -617 0
-602 -618 0
-602 -619 0
-602 -620 0
-602 -621 0
-602 -622 0
-602 -623 0
-602 -624 0
-602 -625 0
-602 -626 0
-603 -604 0
-603 -605 0
-603 -606 0
-603 -607 0
-603 -608 0
-603 -609 0
-603 -610 0
-603 -611 0
-603 -612 0
-603 -613 0
-603 -614 0
-603 -615 0
-603 -616 0
-603 -617 0
-603 -618 0
-603 -619 0
-603 -620 0
-603 -621 0
-603 -622 0
-603 -623 0
-603 -624 0
-603 -625 0
-603 -626 0
-604 -605 0
-604 -606 0
-604 -607 0
-604 -608 0
-604 -609 0
-604 -610 0
-604 -611 0
-604 -612 0
-604 -613 0
-604 -614 0
-604 -615 0
-604 -616 0
-604 -617 0
-604 -618 0
-604 -619 0
-604 -620 0
-604 -621 0
-604 -622 0
-604 -623 0
-604 -624 0
-604 -625 0
-604 -626 0
-605 -606 0
-605 -607 0
-605 -608 0
-605 -609 0
-605 -610 0
-605 -611 0
-605 -612 0
-605 -613 0
-605 -614 0
-605 -615 0
-605 -616 0
-605 -617 0
-605 -618 0
-605 -619 0
-605 -620 0
-605 -621 0
-605 -622 0
-605 -623 0
-605 -624 0
-605 -625 0
-605 -626 0
-606 -607 0
-606 -608 0
-606 -609 0
-606 -610 0
-606 -611 0
-606 -612 0
-606 -613 0
-606 -614 0
-606 -615 0
-606 -616 0
-606 -617 0
-606 -618 0
-606 -619 0
-606 -620 0
-606 -621 0
-606 -622 0
-606 -623 0
-606 -624 0
-606 -625 0
-606 -626 0
-607 -608 0
-607 -609 0
-607 -610 0
-607 -611 0
-607 -612 0
-607 -613 0
-607 -614 0
-607 -615 0
-607 -616 0
-607 -617 0
-607 -618 0
-607 -619 0
-607 -620 0
-607 -621 0
-607 -622 0
-607 -623 0
-607 -624 0
-607 -625 0
-607 -626 0
-608 -609 0
-608 -610 0
-608 -611 0
-608 -612 0
-608 -613 0
-608 -614 0
-608 -615 0
-608 -616 0
-608 -617 0
-608 -618 0
-608 -619 0
-608 -620 0
-608 -621 0
-608 -622 0
-608 -623 0
-608 -624 0
-608 -625 0
-608 -626 0
-609 -610 0
-609 -611 0
-609 -612 0
-609 -613 0
-609 -614 0
-609 -615 0
-609 -616 0
-609 -617 0
-609 -618 0
-609 -619 0
-609 -620 0
-609 -621 0
-609 -622 0
-609 -623 0
-609 -624 0
-609 -625 0
-609 -626 0
-610 -611 0
-610 -612 0
-610 -613 0
-610 -614 0
-610 -615 0
-610 -616 0
-610 -617 0
-610 -618 0
-610 -619 0
-610 -620 0
-610 -621 0
-610 -622 0
-610 -623 0
-610 -624 0
-610 -625 0
-610 -626 0
-611 -612 0
-611 -613 0
-611 -614 0
-611 -615 0
-611 -616 0
-611 -617 0
-611 -618 0
-611 -619 0
-611 -620 0
-611 -621 0
-611 -622 0
-611 -623 0
-611 -624 0
-611 -625 0
-611 -626 0
-612 -613 0
-612 -614 0
-612 -615 0
-612 -616 0
-612 -617 0
-612 -618 0
-612 -619 0
-612 -620 0
-612 -621 0
-612 -622 0
-612 -623 0
-612 -624 0
-612 -625 0
-612 -626 0
-613 -614 0
-613 -615 0
-613 -616 0
-613 -617 0
-613 -618 0
-613 -619 0
-613 -620 0
-613 -621 0
-613 -622 0
-613 -623 0
-613 -624 0
-613 -625 0
-613 -626 0
-614 -615 0
-614 -616 0
-614 -617 0
-614 -618 0
-614 -619 0
-614 -620 0
-614 -621 0
-614 -622 0
-614 -623 0
-614 -624 0
-614 -625 0
-614 -626 0
-615 -616 0
-615 -617 0
-615 -618 0
-615 -619 0
-615 -620 0
-615 -621 0
-615 -622 0
-615 -623 0
-615 -624 0
-615 -625 0
-615 -626 0
-616 -617 0
-616 -618 0
-616 -619 0
-616 -620 0
-616 -621 0
-616 -622 0
-616 -623 0
-616 -624 0
-616 -625 0
-616 -626 0
-617 -618 0
-617 -619 0
-617 -620 0
-617 -621 0
-617 -622 0
-617 -623 0
-617 -624 0
-617 -625 0
-617 -626 0
-618 -619 0
-618 -620 0
-618 -621 0
-618 -622 0
-618 -623 0
-618 -624 0
-618 -625 0
-618 -626 0
-619 -620 0
-619 -621 0
-619 -622 0
-619 -623 0
-619 -624 0
-619 -625 0
-619 -626 0
-620 -621 0
-620 -622 0
-620 -623 0
-620 -624 0
-620 -625 0
-620 -626 0
-621 -622 0
-621 -623 0
-621 -624 0
-621 -625 0
-621 -626 0
-622 -623 0
-622 -624 0
-622 -625 0
-622 -626 0
-623 -624 0
-623 -625 0
-623 -626 0
-624 -625 0
-624 -626 0
-625 -626 0
-566 120 596 0
-566 -120 597 0
-567 120 597 0
-567 -120 598 0
-568 120 598 0
-568 -120 599 0
-569 120 599 0
-569 -120 600 0
-570 120 600 0
-570 -120 601 0
-571 120 601 0
-571 -120 602 0
-572 120 602 0
-572 -120 603 0
-573 120 603 0
-573 -120 604 0
-574 120 604 0
-574 -120 605 0
-575 120 605 0
-575 -120 606 0
-576 120 606 0
-576 -120 607 0
-577 120 607 0
-577 -120 608 0
-578 120 608 0
-578 -120 609 0
-579 120 609 0
-579 -120 610 0
-580 120 610 0
-580 -120 611 0
-581 120 611 0
-581 -120 612 0
-582 120 612 0
-582 -120 613 0
-583 120 613 0
-583 -120 614 0
-584 120 614 0
-584 -120 615 0
-585 120 615 0
-585 -120 616 0
-586 120 616 0
-586 -120 617 0
-587 120 617 0
-587 -120 618 0
-588 120 618 0
-588 -120 619 0
-589 120 619 0
-589 -120 620 0
-590 120 620 0
-590 -120 621 0
-591 120 621 0
-591 -120 622 0
-592 120 622 0
-592 -120 623 0
-593 120 623 0
-593 -120 624 0
-594 120 624 0
-594 -120 625 0
-595 120 625 0
-595 -120 626 0
627 628 629 630 631 632 633 634 635 636 637 638 639 640 641 642 643 644 645 646 647 648 649 650 651 652 653 654 655 656 657 658 0
-627 -628 0
-627 -629 0
-627 -630 0
-627 -631 0
-627 -632 0
-627 -633 0
-627 -634 0
-627 -635 0
-627 -636 0
-627 -637 0
-627 -638 0
-627 -639 0
-627 -640 0
-627 -641 0
-627 -642 0
-627 -643 0
-627 -644 0
-627 -645 0
-627 -646 0
-627 -647 0
-627 -648 0
-627 -649 0
-627 -650 0
-627 -651 0
-627 -652 0
-627 -653 0
-627 -654 0
-627 -655 0
-627 -656 0
-627 -657 0
-627 -658 0
-628 -629 0
-628 -630 0
-628 -631 0
-628 -632 0
-628 -633 0
-628 -634 0
-628 -635 0
-628 -636 0
-628 -637 0
-628 -638 0
-628 -639 0
-628 -640 0
-628 -641 0
-628 -642 0
-628 -643 0
-628 -644 0
-628 -645 0
-628 -646 0
-628 -647 0
-628 -648 0
-628 -649 0
-628 -650 0
-628 -651 0
-628 -652 0
-628 -653 0
-628 -654 0
-628 -655 0
-628 -656 0
-628 -657 0
-628 -658 0
-629 -630 0
-629 -631 0
-629 -632 0
-629 -633 0
-629 -634 0
-629 -635 0
-629 -636 0
-629 -637 0
-629 -638 0
-629 -639 0
-629 -640 0
-629 -641 0
-629 -642 0
-629 -643 0
-629 -644 0
-629 -645 0
-629 -646 0
-629 -647 0
-629 -648 0
-629 -649 0
-629 -650 0
-629 -651 0
-629 -652 0
-629 -653 0
-629 -654 0
-629 -655 0
-629 -656 0
-629 -657 0
-629 -658 0
-630 -631 0
-630 -632 0
-630 -633 0
-630 -634 0
-630 -635 0
-630 -636 0
-630 -637 0
-630 -638 0
-630 -639 0
-630 -640 0
-630 -641 0
-630 -642 0
-630 -643 0
-630 -644 0
-630 -645 0
-630 -646 0
-630 -647 0
-630 -648 0
-630 -649 0
-630 -650 0
-630 -651 0
-630 -652 0
-630 -653 0
-630 -654 0
-630 -655 0
-630 -656 0
-630 -657 0
-630 -658 0
-631 -632 0
-631 -633 0
-631 -634 0
-631 -635 0
-631 -636 0
-631 -637 0
-631 -638 0
-631 -639 0
-631 -640 0
-631 -641 0
-631 -642 0
-631 -643 0
-631 -644 0
-631 -645 0
-631 -646 0
-631 -647 0
-631 -648 0
-631 -649 0
-631 -650 0
-631 -651 0
-631 -652 0
-631 -653 0
-631 -654 0
-631 -655 0
-631 -656 0
-631 -657 0
-631 -658 0
-632 -633 0
-632 -634 0
-632 -635 0
-632 -636 0
-632 -637 0
-632 -638 0
-632 -639 0
-632 -640 0
-632 -641 0
-632 -642 0
-632 -643 0
-632 -644 0
-632 -645 0
-632 -646 0
-632 -647 0
-632 -648 0
-632 -649 0
-632 -650 0
-632 -651 0
-632 -652 0
-632 -653 0
-632 -654 0
-632 -655 0
-632 -656 0
-632 -657 0
-632 -658 0
-633 -634 0
-633 -635 0
-633 -636 0
-633 -637 0
-633 -638 0
-633 -639 0
-633 -640 0
-633 -641 0
-633 -642 0
-633 -643 0
-633 -644 0
-633 -645 0
-633 -646 0
-633 -647 0
-633 -648 0
-633 -649 0
-633 -650 0
-633 -651 0
-633 -652 0
-633 -653 0
-633 -654 0
-633 -655 0
-633 -656 0
-633 -657 0
-633 -658 0
-634 -635 0
-634 -636 0
-634 -637 0
-634 -638 0
-634 -639 0
-634 -640 0
-634 -641 0
-634 -642 0
-634 -643 0
-634 -644 0
-634 -645 0
-634 -646 0
-634 -647 0
-634 -648 0
-634 -649 0
-634 -650 0
-634 -651 0
-634 -652 0
-634 -653 0
-634 -654 0
-634 -655 0
-634 -656 0
-634 -657 0
-634 -658 0
-635 -636 0
-635 -637 0
-635 -638 0
-635 -639 0
-635 -640 0
-635 -641 0
-635 -642 0
-635 -643 0
-635 -644 0
-635 -645 0
-635 -646 0
-635 -647 0
-635 -648 0
-635 -649 0
-635 -650 0
-635 -651 0
-635 -652 0
-635 -653 0
-635 -654 0
-635 -655 0
-635 -656 0
-635 -657 0
-635 -658 0
-636 -637 0
-636 -638 0
-636 -639 0
-636 -640 0
-636 -641 0
-636 -642 0
-636 -643 0
-636 -644 0
-636 -645 0
-636 -646 0
-636 -647 0
-636 -648 0
-636 -649 0
-636 -650 0
-636 -651 0
-636 -652 0
-636 -653 0
-636 -654 0
-636 -655 0
-636 -656 0
-636 -657 0
-636 -658 0
-637 -638 0
-637 -639 0
-637 -640 0
-637 -641 0
-637 -642 0
-637 -643 0
-637 -644 0
-637 -645 0
-637 -646 0
-637 -647 0
-637 -648 0
-637 -649 0
-637 -650 0
-637 -651 0
-637 -652 0
-637 -653 0
-637 -654 0
-637 -655 0
-637 -656 0
-637 -657 0
-637 -658 0
-638 -639 0
-638 -640 0
-638 -641 0
-638 -642 0
-638 -643 0
-638 -644 0
-638 -645 0
-638 -646 0
-638 -647 0
-638 -648 0
-638 -649 0
-638 -650 0
-638 -651 0
-638 -652 0
-638 -653 0
-638 -654 0
-638 -655 0
-638 -656 0
-638 -657 0
-638 -658 0
-639 -640 0
-639 -641 0
-639 -642 0
-639 -643 0
-639 -644 0
-639 -645 0
-639 -646 0
-639 -647 0
-639 -648 0
-639 -649 0
-639 -650 0
-639 -651 0
-639 -652 0
-639 -653 0
-639 -654 0
-639 -655 0
-639 -656 0
-639 -657 0
-639 -658 0
-640 -641 0
-640 -642 0
-640 -643 0
-640 -644 0
-640 -645 0
-640 -646 0
-640 -647 0
-640 -648 0
-640 -649 0
-640 -650 0
-640 -651 0
-640 -652 0
-640 -653 0
-640 -654 0
-640 -655 0
-640 -656 0
-640 -657 0
-640 -658 0
-641 -642 0
-641 -643 0
-641 -644 0
-641 -645 0
-641 -646 0
-641 -647 0
-641 -648 0
-641 -649 0
-641 -650 0
-641 -651 0
-641 -652 0
-641 -653 0
-641 -654 0
-641 -655 0
-641 -656 0
-641 -657 0
-641 -658 0
-642 -643 0
-642 -644 0
-642 -645 0
-642 -646 0
-642 -647 0
-642 -648 0
-642 -649 0
-642 -650 0
-642 -651 0
-642 -652 0
-642 -653 0
-642 -654 0
-642 -655 0
-642 -656 0
-642 -657 0
-642 -658 0
-643 -644 0
-643 -645 0
-643 -646 0
-643 -647 0
-643 -648 0
-643 -649 0
-643 -650 0
-643 -651 0
-643 -652 0
-643 -653 0
-643 -654 0
-643 -655 0
-643 -656 0
-643 -657 0
-643 -658 0
-644 -645 0
-644 -646 0
-644 -647 0
-644 -648 0
-644 -649 0
-644 -650 0
-644 -651 0
-644 -652 0
-644 -653 0
-644 -654 0
-644 -655 0
-644 -656 0
-644 -657 0
-644 -658 0
-645 -646 0
-645 -647 0
-645 -648 0
-645 -649 0
-645 -650 0
-645 -651 0
-645 -652 0
-645 -653 0
-645 -654 0
-645 -655 0
-645 -656 0
-645 -657 0
-645 -658 0
-646 -647 0
-646 -648 0
-646 -649 0
-646 -650 0
-646 -651 0
-646 -652 0
-646 -653 0
-646 -654 0
-646 -655 0
-646 -656 0
-646 -657 0
-646 -658 0
-647 -648 0
-647 -649 0
-647 -650 0
-647 -651 0
-647 -652 0
-647 -653 0
-647 -654 0
-647 -655 0
-647 -656 0
-647 -657 0
-647 -658 0
-648 -649 0
-648 -650 0
-648 -651 0
-648 -652 0
-648 -653 0
-648 -654 0
-648 -655 0
-648 -656 0
-648 -657 0
-648 -658 0
-649 -650 0
-649 -651 0
-649 -652 0
-649 -653 0
-649 -654 0
-649 -655 0
-649 -656 0
-649 -657 0
-649 -658 0
-650 -651 0
-650 -652 0
-650 -653 0
-650 -654 0
-650 -655 0
-650 -656 0
-650 -657 0
-650 -658 0
-651 -652 0
-651 -653 0
-651 -654 0
-651 -655 0
-651 -656 0
-651 -657 0
-651 -658 0
-652 -653 0
-652 -654 0
-652 -655 0
-652 -656 0
-652 -657 0
-652 -658 0
-653 -654 0
-653 -655 0
-653 -656 0
-653 -657 0
-653 -658 0
-654 -655 0
-654 -656 0
-654 -657 0
-654 -658 0
-655 -656 0
-655 -657 0
-655 -658 0
-656 -657 0
-656 -658 0
-657 -658 0
-596 121 627 0
-596 -121 628 0
-597 121 628 0
-597 -121 629 0
-598 121 629 0
-598 -121 630 0
-599 121 630 0
-599 -121 631 0
-600 121 631 0
-600 -121 632 0
-601 121 632 0
-601 -121 633 0
-602 121 633 0
-602 -121 634 0
-603 121 634 0
-603 -121 635 0
-604 121 635 0
-604 -121 636 0
-605 121 636 0
-605 -121 637 0
-606 121 637 0
-606 -121 638 0
-607 121 638 0
-607 -121 639 0
-608 121 639 0
-608 -121 640 0
-609 121 640 0
-609 -121 641 0
-610 121 641 0
-610 -121 642 0
-611 121 642 0
-611 -121 643 0
-612 121 643 0
-612 -121 644 0
-613 121 644 0
-613 -121 645 0
-614 121 645 0
-614 -121 646 0
-615 121 646 0
-615 -121 647 0
-616 121 647 0
-616 -121 648 0
-617 121 648 0
-617 -121 649 0
-618 121 649 0
-618 -121 650 0
-619 121 650 0
-619 -121 651 0
-620 121 651 0
-620 -121 652 0
-621 121 652 0
-621 -121 653 0
-622 121 653 0
-622 -121 654 0
-623 121 654 0
-623 -121 655 0
-624 121 655 0
-624 -121 656 0
-625 121 656 0
-625 -121 657 0
-626 121 657 0
-626 -121 658 0
659 660 661 662 663 664 665 666 667 668 669 670 671 672 673 674 675 676 677 678 679 680 681 682 683 684 685 686 687 688 689 690 691 0
-659 -660 0
-659 -661 0
-659 -662 0
-659 -663 0
-659 -664 0
-659 -665 0
-659 -666 0
-659 -667 0
-659 -668 0
-659 -669 0
-659 -670 0
-659 -671 0
-659 -672 0
-659 -673 0
-659 -674 0
-659 -675 0
-659 -676 0
-659 -677 0
-659 -678 0
-659 -679 0
-659 -680 0
-659 -681 0
-659 -682 0
-659 -683 0
-659 -684 0
-659 -685 0
-659 -686 0
-659 -687 0
-659 -688 0
-659 -689 0
-659 -690 0
-659 -691 0
-660 -661 0
-660 -662 0
-660 -663 0
-660 -664 0
-660 -665 0
-660 -666 0
-660 -667 0
-660 -668 0
-660 -669 0
-660 -670 0
-660 -671 0
-660 -672 0
-660 -673 0
-660 -674 0
-660 -675 0
-660 -676 0
-660 -677 0
-660 -678 0
-660 -679 0
-660 -680 0
-660 -681 0
-660 -682 0
-660 -683 0
-660 -684 0
-660 -685 0
-660 -686 0
-660 -687 0
-660 -688 0
-660 -689 0
-660 -690 0
-660 -691 0
-661 -662 0
-661 -663 0
-661 -664 0
-661 -665 0
-661 -666 0
-661 -667 0
-661 -668 0
-661 -669 0
-661 -670 0
-661 -671 0
-661 -672 0
-661 -673 0
-661 -674 0
-661 -675 0
-661 -676 0
-661 -677 0
-661 -678 0
-661 -679 0
-661 -680 0
-661 -681 0
-661 -682 0
-661 -683 0
-661 -684 0
-661 -685 0
-661 -686 0
-661 -687 0
-661 -688 0
-661 -689 0
-661 -690 0
-661 -691 0
-662 -663 0
-662 -664 0
-662 -665 0
-662 -666 0
-662 -667 0
-662 -668 0
-662 -669 0
-662 -670 0
-662 -671 0
-662 -672 0
-662 -673 0
-662 -674 0
-662 -675 0
-662 -676 0
-662 -677 0
-662 -678 0
-662 -679 0
-662 -680 0
-662 -681 0
-662 -682 0
-662 -683 0
-662 -684 0
-662 -685 0
-662 -686 0
-662 -687 0
-662 -688 0
-662 -689 0
-662 -690 0
-662 -691 0
-663 -664 0
-663 -665 0
-663 -666 0
-663 -667 0
-663 -668 0
-663 -669 0
-663 -670 0
-663 -671 0
-663 -672 0
-663 -673 0
-663 -674 0
-663 -675 0
-663 -676 0
-663 -677 0
-663 -678 0
-663 -679 0
-663 -680 0
-663 -681 0
-663 -682 0
-663 -683 0
-663 -684 0
-663 -685 0
-663 -686 0
-663 -687 0
-663 -688 0
-663 -689 0
-663 -690 0
-663 -691 0
-664 -665 0
-664 -666 0
-664 -667 0
-664 -668 0
-664 -669 0
-664 -670 0
-664 -671 0
-664 -672 0
-664 -673 0
-664 -674 0
-664 -675 0
-664 -676 0
-664 -677 0
-664 -678 0
-664 -679 0
-664 -680 0
-664 -681 0
-664 -682 0
-664 -683 0
-664 -684 0
-664 -685 0
-664 -686 0
-664 -687 0
-664 -688 0
-664 -689 0
-664 -690 0
-664 -691 0
-665 -666 0
-665 -667 0
-665 -668 0
-665 -669 0
-665 -670 0
-665 -671 0
-665 -672 0
-665 -673 0
-665 -674 0
-665 -675 0
-665 -676 0
-665 -677 0
-665 -678 0
-665 -679 0
-665 -680 0
-665 -681 0
-665 -682 0
-665 -683 0
-665 -684 0
-665 -685 0
-665 -686 0
-665 -687 0
-665 -688 0
-665 -689 0
-665 -690 0
-665 -691 0
-666 -667 0
-666 -668 0
-666 -669 0
-666 -670 0
-666 -671 0
-666 -672 0
-666 -673 0
-666 -674 0
-666 -675 0
-666 -676 0
-666 -677 0
-666 -678 0
-666 -679 0
-666 -680 0
-666 -681 0
-666 -682 0
-666 -683 0
-666 -684 0
-666 -685 0
-666 -686 0
-666 -687 0
-666 -688 0
-666 -689 0
-666 -690 0
-666 -691 0
-667 -668 0
-667 -669 0
-667 -670 0
-667 -671 0
-667 -672 0
-667 -673 0
-667 -674 0
-667 -675 0
-667 -676 0
-667 -677 0
-667 -678 0
-667 -679 0
-667 -680 0
-667 -681 0
-667 -682 0
-667 -683 0
-667 -684 0
-667 -685 0
-667 -686 0
-667 -687 0
-667 -688 0
-667 -689 0
-667 -690 0
-667 -691 0
-668 -669 0
-668 -670 0
-668 -671 0
-668 -672 0
-668 -673 0
-668 -674 0
-668 -675 0
-668 -676 0
-668 -677 0
-668 -678 0
-668 -679 0
-668 -680 0
-668 -681 0
-668 -682 0
-668 -683 0
-668 -684 0
-668 -685 0
-668 -686 0
-668 -687 0
-668 -688 0
-668 -689 0
-668 -690 0
-668 -691 0
-669 -670 0
-669 -671 0
-669 -672 0
-669 -673 0
-669 -674 0
-669 -675 0
-669 -676 0
-669 -677 0
-669 -678 0
-669 -679 0
-669 -680 0
-669 -681 0
-669 -682 0
-669 -683 0
-669 -684 0
-669 -685 0
-669 -686 0
-669 -687 0
-669 -688 0
-669 -689 0
-669 -690 0
-669 -691 0
-670 -671 0
-670 -672 0
-670 -673 0
-670 -674 0
-670 -675 0
-670 -676 0
-670 -677 0
-670 -678 0
-670 -679 0
-670 -680 0
-670 -681 0
-670 -682 0
-670 -683 0
-670 -684 0
-670 -685 0
-670 -686 0
-670 -687 0
-670 -688 0
-670 -689 0
-670 -690 0
-670 -691 0
-671 -672 0
-671 -673 0
-671 -674 0
-671 -675 0
-671 -676 0
-671 -677 0
-671 -678 0
-671 -679 0
-671 -680 0
-671 -681 0
-671 -682 0
-671 -683 0
-671 -684 0
-671 -685 0
-671 -686 0
-671 -687 0
-671 -688 0
-671 -689 0
-671 -690 0
-671 -691 0
-672 -673 0
-672 -674 0
-672 -675 0
-672 -676 0
-672 -677 0
-672 -678 0
-672 -679 0
-672 -680 0
-672 -681 0
-672 -682 0
-672 -683 0
-672 -684 0
-672 -685 0
-672 -686 0
-672 -687 0
-672 -688 0
-672 -689 0
-672 -690 0
-672 -691 0
-673 -674 0
-673 -675 0
-673 -676 0
-673 -677 0
-673 -678 0
-673 -679 0
-673 -680 0
-673 -681 0
-673 -682 0
-673 -683 0
-673 -684 0
-673 -685 0
-673 -686 0
-673 -687 0
-673 -688 0
-673 -689 0
-673 -690 0
-673 -691 0
-674 -675 0
-674 -676 0
-674 -677 0
-674 -678 0
-674 -679 0
-674 -680 0
-674 -681 0
-674 -682 0
-674 -683 0
-674 -684 0
-674 -685 0
-674 -686 0
-674 -687 0
-674 -688 0
-674 -689 0
-674 -690 0
-674 -691 0
-675 -676 0
-675 -677 0
-675 -678 0
-675 -679 0
-675 -680 0
-675 -681 0
-675 -682 0
-675 -683 0
-675 -684 0
-675 -685 0
-675 -686 0
-675 -687 0
-675 -688 0
-675 -689 0
-675 -690 0
-675 -691 0
-676 -677 0
-676 -678 0
-676 -679 0
-676 -680 0
-676 -681 0
-676 -682 0
-676 -683 0
-676 -684 0
-676 -685 0
-676 -686 0
-676 -687 0
-676 -688 0
-676 -689 0
-676 -690 0
-676 -691 0
-677 -678 0
-677 -679 0
-677 -680 0
-677 -681 0
-677 -682 0
-677 -683 0
-677 -684 0
-677 -685 0
-677 -686 0
-677 -687 0
-677 -688 0
-677 -689 0
-677 -690 0
-677 -691 0
-678 -679 0
-678 -680 0
-678 -681 0
-678 -682 0
-678 -683 0
-678 -684 0
-678 -685 0
-678 -686 0
-678 -687 0
-678 -688 0
-678 -689 0
-678 -690 0
-678 -691 0
-679 -680 0
-679 -681 0
-679 -682 0
-679 -683 0
-679 -684 0
-679 -685 0
-679 -686 0
-679 -687 0
-679 -688 0
-679 -689 0
-679 -690 0
-679 -691 0
-680 -681 0
-680 -682 0
-680 -683 0
-680 -684 0
-680 -685 0
-680 -686 0
-680 -687 0
-680 -688 0
-680 -689 0
-680 -690 0
-680 -691 0
-681 -682 0
-681 -683 0
-681 -684 0
-681 -685 0
-681 -686 0
-681 -687 0
-681 -688 0
-681 -689 0
-681 -690 0
-681 -691 0
-682 -683 0
-682 -684 0
-682 -685 0
-682 -686 0
-682 -687 0
-682 -688 0
-682 -689 0
-682 -690 0
-682 -691 0
-683 -684 0
-683 -685 0
-683 -686 0
-683 -687 0
-683 -688 0
-683 -689 0
-683 -690 0
-683 -691 0
-684 -685 0
-684 -686 0
-684 -687 0
-684 -688 0
-684 -689 0
-684 -690 0
-684 -691 0
-685 -686 0
-685 -687 0
-685 -688 0
-685 -689 0
-685 -690 0
-685 -691 0
-686 -687 0
-686 -688 0
-686 -689 0
-686 -690 0
-686 -691 0
-687 -688 0
-687 -689 0
-687 -690 0
-687 -691 0
-688 -689 0
-688 -690 0
-688 -691 0
-689 -690 0
-689 -691 0
-690 -691 0
-627 122 659 0
-627 -122 660 0
-628 122 660 0
-628 -122 661 0
-629 122 661 0
-629 -122 662 0
-630 122 662 0
-630 -122 663 0
-631 122 663 0
-631 -122 664 0
-632 122 664 0
-632 -122 665 0
-633 122 665 0
-633 -122 666 0
-634 122 666 0
-634 -122 667 0
-635 122 667 0
-635 -122 668 0
-636 122 668 0
-636 -122 669 0
-637 122 669 0
-637 -122 670 0
-638 122 670 0
-638 -122 671 0
-639 122 671 0
-639 -122 672 0
-640 122 672 0
-640 -122 673 0
-641 122 673 0
-641 -122 674 0
-642 122 674 0
-642 -122 675 0
-643 122 675 0
-643 -122 676 0
-644 122 676 0
-644 -122 677 0
-645 122 677 0
-645 -122 678 0
-646 122 678 0
-646 -122 679 0
-647 122 679 0
-647 -122 680 0
-648 122 680 0
-648 -122 681 0
-649 122 681 0
-649 -122 682 0
-650 122 682 0
-650 -122 683 0
-651 122 683 0
-651 -122 684 0
-652 122 684 0
-652 -122 685 0
-653 122 685 0
-653 -122 686 0
-654 122 686 0
-654 -122 687 0
-655 122 687 0
-655 -122 688 0
-656 122 688 0
-656 -122 689 0
-657 122 689 0
-657 -122 690 0
-658 122 690 0
-658 -122 691 0
692 693 694 695 696 697 698 699 700 701 702 703 704 705 706 707 708 709 710 711 712 713 714 715 716 717 718 719 720 721 722 723 724 725 0
-692 -693 0
-692 -694 0
-692 -695 0
-692 -696 0
-692 -697 0
-692 -698 0
-692 -699 0
-692 -700 0
-692 -701 0
-692 -702 0
-692 -703 0
-692 -704 0
-692 -705 0
-692 -706 0
-692 -707 0
-692 -708 0
-692 -709 0
-692 -710 0
-692 -711 0
-692 -712 0
-692 -713 0
-692 -714 0
-692 -715 0
-692 -716 0
-692 -717 0
-692 -718 0
-692 -719 0
-692 -720 0
-692 -721 0
-692 -722 0
-692 -723 0
-692 -724 0
-692 -725 0
-693 -694 0
-693 -695 0
-693 -696 0
-693 -697 0
-693 -698 0
-693 -699 0
-693 -700 0
-693 -701 0
-693 -702 0
-693 -703 0
-693 -704 0
-693 -705 0
-693 -706 0
-693 -707 0
-693 -708 0
-693 -709 0
-693 -710 0
-693 -711 0
-693 -712 0
-693 -713 0
-693 -714 0
-693 -715 0
-693 -716 0
-693 -717 0
-693 -718 0
-693 -719 0
-693 -720 0
-693 -721 0
-693 -722 0
-693 -723 0
-693 -724 0
-693 -725 0
-694 -695 0
-694 -696 0
-694 -697 0
-694 -698 0
-694 -699 0
-694 -700 0
-694 -701 0
-694 -702 0
-694 -703 0
-694 -704 0
-694 -705 0
-694 -706 0
-694 -707 0
-694 -708 0
-694 -709 0
-694 -710 0
-694 -711 0
-694 -712 0
-694 -713 0
-694 -714 0
-694 -715 0
-694 -716 0
-694 -717 0
-694 -718 0
-694 -719 0
-694 -720 0
-694 -721 0
-694 -722 0
-694 -723 0
-694 -724 0
-694 -725 0
-695 -696 0
-695 -697 0
-695 -698 0
-695 -699 0
-695 -700 0
-695 -701 0
-695 -702 0
-695 -703 0
-695 -704 0
-695 -705 0
-695 -706 0
-695 -707 0
-695 -708 0
-695 -709 0
-695 -710 0
-695 -711 0
-695 -712 0
-695 -713 0
-695 -714 0
-695 -715 0
-695 -716 0
-695 -717 0
-695 -718 0
-695 -719 0
-695 -720 0
-695 -721 0
-695 -722 0
-695 -723 0
-695 -724 0
-695 -725 0
-696 -697 0
-696 -698 0
-696 -699 0
-696 -700 0
-696 -701 0
-696 -702 0
-696 -703 0
-696 -704 0
-696 -705 0
-696 -706 0
-696 -707 0
-696 -708 0
-696 -709 0
-696 -710 0
-696 -711 0
-696 -712 0
-696 -713 0
-696 -714 0
-696 -715 0
-696 -716 0
-696 -717 0
-696 -718 0
-696 -719 0
-696 -720 0
-696 -721 0
-696 -722 0
-696 -723 0
-696 -724 0
-696 -725 0
-697 -698 0
-697 -699 0
-697 -700 0
-697 -701 0
-697 -702 0
-697 -703 0
-697 -704 0
-697 -705 0
-697 -706 0
-697 -707 0
-697 -708 0
-697 -709 0
-697 -710 0
-697 -711 0
-697 -712 0
-697 -713 0
-697 -714 0
-697 -715 0
-697 -716 0
-697 -717 0
-697 -718 0
-697 -719 0
-697 -720 0
-697 -721 0
-697 -722 0
-697 -723 0
-697 -724 0
-697 -725 0
-698 -699 0
-698 -700 0
-698 -701 0
-698 -702 0
-698 -703 0
-698 -704 0
-698 -705 0
-698 -706 0
-698 -707 0
-698 -708 0
-698 -709 0
-698 -710 0
-698 -711 0
-698 -712 0
-698 -713 0
-698 -714 0
-698 -715 0
-698 -716 0
-698 -717 0
-698 -718 0
-698 -719 0
-698 -720 0
-698 -721 0
-698 -722 0
-698 -723 0
-698 -724 0
-698 -725 0
-699 -700 0
-699 -701 0
-699 -702 0
-699 -703 0
-699 -704 0
-699 -705 0
-699 -706 0
-699 -707 0
-699 -708 0
-699 -709 0
-699 -710 0
-699 -711 0
-699 -712 0
-699 -713 0
-699 -714 0
-699 -715 0
-699 -716 0
-699 -717 0
-699 -718 0
-699 -719 0
-699 -720 0
-699 -721 0
-699 -722 0
-699 -723 0
-699 -724 0
-699 -725 0
-700 -701 0
-700 -702 0
-700 -703 0
-700 -704 0
-700 -705 0
-700 -706 0
-700 -707 0
-700 -708 0
-700 -709 0
-700 -710 0
-700 -711 0
-700 -712 0
-700 -713 0
-700 -714 0
-700 -715 0
-700 -716 0
-700 -717 0
-700 -718 0
-700 -719 0
-700 -720 0
-700 -721 0
-700 -722 0
-700 -723 0
-700 -724 0
-700 -725 0
-701 -702 0
-701 -703 0
-701 -704 0
-701 -705 0
-701 -706 0
-701 -707 0
-701 -708 0
-701 -709 0
-701 -710 0
-701 -711 0
-701 -712 0
-701 -713 0
-701 -714 0
-701 -715 0
-701 -716 0
-701 -717 0
-701 -718 0
-701 -719 0
-701 -720 0
-701 -721 0
-701 -722 0
-701 -723 0
-701 -724 0
-701 -725 0
-702 -703 0
-702 -704 0
-702 -705 0
-702 -706 0
-702 -707 0
-702 -708 0
-702 -709 0
-702 -710 0
-702 -711 0
-702 -712 0
-702 -713 0
-702 -714 0
-702 -715 0
-702 -716 0
-702 -717 0
-702 -718 0
-702 -719 0
-702 -720 0
-702 -721 0
-702 -722 0
-702 -723 0
-702 -724 0
-702 -725 0
-703 -704 0
-703 -705 0
-703 -706 0
-703 -707 0
-703 -708 0
-703 -709 0
-703 -710 0
-703 -711 0
-703 -712 0
-703 -713 0
-703 -714 0
-703 -715 0
-703 -716 0
-703 -717 0
-703 -718 0
-703 -719 0
-703 -720 0
-703 -721 0
-703 -722 0
-703 -723 0
-703 -724 0
-703 -725 0
-704 -705 0
-704 -706 0
-704 -707 0
-704 -708 0
-704 -709 0
-704 -710 0
-704 -711 0
-704 -712 0
-704 -713 0
-704 -714 0
-704 -715 0
-704 -716 0
-704 -717 0
-704 -718 0
-704 -719 0
-704 -720 0
-704 -721 0
-704 -722 0
-704 -723 0
-704 -724 0
-704 -725 0
-705 -706 0
-705 -707 0
-705 -708 0
-705 -709 0
-705 -710 0
-705 -711 0
-705 -712 0
-705 -713 0
-705 -714 0
-705 -715 0
-705 -716 0
-705 -717 0
-705 -718 0
-705 -719 0
-705 -720 0
-705 -721 0
-705 -722 0
-705 -723 0
-705 -724 0
-705 -725 0
-706 -707 0
-706 -708 0
-706 -709 0
-706 -710 0
-706 -711 0
-706 -712 0
-706 -713 0
-706 -714 0
-706 -715 0
-706 -716 0
-706 -717 0
-706 -718 0
-706 -719 0
-706 -720 0
-706 -721 0
-706 -722 0
-706 -723 0
-706 -724 0
-706 -725 0
-707 -708 0
-707 -709 0
-707 -710 0
-707 -711 0
-707 -712 0
-707 -713 0
-707 -714 0
-707 -715 0
-707 -716 0
-707 -717 0
-707 -718 0
-707 -719 0
-707 -720 0
-707 -721 0
-707 -722 0
-707 -723 0
-707 -724 0
-707 -725 0
-708 -709 0
-708 -710 0
-708 -711 0
-708 -712 0
-708 -713 0
-708 -714 0
-708 -715 0
-708 -716 0
-708 -717 0
-708 -718 0
-708 -719 0
-708 -720 0
-708 -721 0
-708 -722 0
-708 -723 0
-708 -724 0
-708 -725 0
-709 -710 0
-709 -711 0
-709 -712 0
-709 -713 0
-709 -714 0
-709 -715 0
-709 -716 0
-709 -717 0
-709 -718 0
-709 -719 0
-709 -720 0
-709 -721 0
-709 -722 0
-709 -723 0
-709 -724 0
-709 -725 0
-710 -711 0
-710 -712 0
-710 -713 0
-710 -714 0
-710 -715 0
-710 -716 0
-710 -717 0
-710 -718 0
-710 -719 0
-710 -720 0
-710 -721 0
-710 -722 0
-710 -723 0
-710 -724 0
-710 -725 0
-711 -712 0
-711 -713 0
-711 -714 0
-711 -715 0
-711 -716 0
-711 -717 0
-711 -718 0
-711 -719 0
-711 -720 0
-711 -721 0
-711 -722 0
-711 -723 0
-711 -724 0
-711 -725 0
-712 -713 0
-712 -714 0
-712 -715 0
-712 -716 0
-712 -717 0
-712 -718 0
-712 -719 0
-712 -720 0
-712 -721 0
-712 -722 0
-712 -723 0
-712 -724 0
-712 -725 0
-713 -714 0
-713 -715 0
-713 -716 0
-713 -717 0
-713 -718 0
-713 -719 0
-713 -720 0
-713 -721 0
-713 -722 0
-713 -723 0
-713 -724 0
-713 -725 0
-714 -715 0
-714 -716 0
-714 -717 0
-714 -718 0
-714 -719 0
-714 -720 0
-714 -721 0
-714 -722 0
-714 -723 0
-714 -724 0
-714 -725 0
-715 -716 0
-715 -717 0
-715 -718 0
-715 -719 0
-715 -720 0
-715 -721 0
-715 -722 0
-715 -723 0
-715 -724 0
-715 -725 0
-716 -717 0
-716 -718 0
-716 -719 0
-716 -720 0
-716 -721 0
-716 -722 0
-716 -723 0
-716 -724 0
-716 -725 0
-717 -718 0
-717 -719 0
-717 -720 0
-717 -721 0
-717 -722 0
-717 -723 0
-717 -724 0
-717 -725 0
-718 -719 0
-718 -720 0
-718 -721 0
-718 -722 0
-718 -723 0
-718 -724 0
-718 -725 0
-719 -720 0
-719 -721 0
-719 -722 0
-719 -723 0
-719 -724 0
-719 -725 0
-720 -721 0
-720 -722 0
-720 -723 0
-720 -724 0
-720 -725 0
-721 -722 0
-721 -723 0
-721 -724 0
-721 -725 0
-722 -723 0
-722 -724 0
-722 -725 0
-723 -724 0
-723 -725 0
-724 -725 0
-659 123 692 0
-659 -123 693 0
-660 123 693 0
-660 -123 694 0
-661 123 694 0
-661 -123 695 0
-662 123 695 0
-662 -123 696 0
-663 123 696 0
-663 -123 697 0
-664 123 697 0
-664 -123 698 0
-665 123 698 0
-665 -123 699 0
-666 123 699 0
-666 -123 700 0
-667 123 700 0
-667 -123 701 0
-668 123 701 0
-668 -123 702 0
-669 123 702 0
-669 -123 703 0
-670 123 703 0
-670 -123 704 0
-671 123 704 0
-671 -123 705 0
-672 123 705 0
-672 -123 706 0
-673 123 706 0
-673 -123 707 0
-674 123 707 0
-674 -123 708 0
-675 123 708 0
-675 -123 709 0
-676 123 709 0
-676 -123 710 0
-677 123 710 0
-677 -123 711 0
-678 123 711 0
-678 -123 712 0
-679 123 712 0
-679 -123 713 0
-680 123 713 0
-680 -123 714 0
-681 123 714 0
-681 -123 715 0
-682 123 715 0
-682 -123 716 0
-683 123 716 0
-683 -123 717 0
-684 123 717 0
-684 -123 718 0
-685 123 718 0
-685 -123 719 0
-686 123 719 0
-686 -123 720 0
-687 123 720 0
-687 -123 721 0
-688 123 721 0
-688 -123 722 0
-689 123 722 0
-689 -123 723 0
-690 123 723 0
-690 -123 724 0
-691 123 724 0
-691 -123 725 0
726 727 728 729 730 731 732 733 734 735 736 737 738 739 740 741 742 743 744 745 746 747 748 749 750 751 752 753 754 755 756 757 758 759 760 0
-726 -727 0
-726 -728 0
-726 -729 0
-726 -730 0
-726 -731 0
-726 -732 0
-726 -733 0
-726 -734 0
-726 -735 0
-726 -736 0
-726 -737 0
-726 -738 0
-726 -739 0
-726 -740 0
-726 -741 0
-726 -742 0
-726 -743 0
-726 -744 0
-726 -745 0
-726 -746 0
-726 -747 0
-726 -748 0
-726 -749 0
-726 -750 0
-726 -751 0
-726 -752 0
-726 -753 0
-726 -754 0
-726 -755 0
-726 -756 0
-726 -757 0
-726 -758 0
-726 -759 0
-726 -760 0
-727 -728 0
-727 -729 0
-727 -730 0
-727 -731 0
-727 -732 0
-727 -733 0
-727 -734 0
-727 -735 0
-727 -736 0
-727 -737 0
-727 -738 0
-727 -739 0
-727 -740 0
-727 -741 0
-727 -742 0
-727 -743 0
-727 -744 0
-727 -745 0
-727 -746 0
-727 -747 0
-727 -748 0
-727 -749 0
-727 -750 0
-727 -751 0
-727 -752 0
-727 -753 0
-727 -754 0
-727 -755 0
-727 -756 0
-727 -757 0
-727 -758 0
-727 -759 0
-727 -760 0
-728 -729 0
-728 -730 0
-728 -731 0
-728 -732 0
-728 -733 0
-728 -734 0
-728 -735 0
-728 -736 0
-728 -737 0
-728 -738 0
-728 -739 0
-728 -740 0
-728 -741 0
-728 -742 0
-728 -743 0
-728 -744 0
-728 -745 0
-728 -746 0
-728 -747 0
-728 -748 0
-728 -749 0
-728 -750 0
-728 -751 0
-728 -752 0
-728 -753 0
-728 -754 0
-728 -755 0
-728 -756 0
-728 -757 0
-728 -758 0
-728 -759 0
-728 -760 0
-729 -730 0
-729 -731 0
-729 -732 0
-729 -733 0
-729 -734 0
-729 -735 0
-729 -736 0
-729 -737 0
-729 -738 0
-729 -739 0
-729 -740 0
-729 -741 0
-729 -742 0
-729 -743 0
-729 -744 0
-729 -745 0
-729 -746 0
-729 -747 0
-729 -748 0
-729 -749 0
-729 -750 0
-729 -751 0
-729 -752 0
-729 -753 0
-729 -754 0
-729 -755 0
-729 -756 0
-729 -757 0
-729 -758 0
-729 -759 0
-729 -760 0
-730 -731 0
-730 -732 0
-730 -733 0
-730 -734 0
-730 -735 0
-730 -736 0
-730 -737 0
-730 -738 0
-730 -739 0
-730 -740 0
-730 -741 0
-730 -742 0
-730 -743 0
-730 -744 0
-730 -745 0
-730 -746 0
-730 -747 0
-730 -748 0
-730 -749 0
-730 -750 0
-730 -751 0
-730 -752 0
-730 -753 0
-730 -754 0
-730 -755 0
-730 -756 0
-730 -757 0
-730 -758 0
-730 -759 0
-730 -760 0
-731 -732 0
-731 -733 0
-731 -734 0
-731 -735 0
-731 -736 0
-731 -737 0
-731 -738 0
-731 -739 0
-731 -740 0
-731 -741 0
-731 -742 0
-731 -743 0
-731 -744 0
-731 -745 0
-731 -746 0
-731 -747 0
-731 -748 0
-731 -749 0
-731 -750 0
-731 -751 0
-731 -752 0
-731 -753 0
-731 -754 0
-731 -755 0
-731 -756 0
-731 -757 0
-731 -758 0
-731 -759 0
-731 -760 0
-732 -733 0
-732 -734 0
-732 -735 0
-732 -736 0
-732 -737 0
-732 -738 0
-732 -739 0
-732 -740 0
-732 -741 0
-732 -742 0
-732 -743 0
-732 -744 0
-732 -745 0
-732 -746 0
-732 -747 0
-732 -748 0
-732 -749 0
-732 -750 0
-732 -751 0
-732 -752 0
-732 -753 0
-732 -754 0
-732 -755 0
-732 -756 0
-732 -757 0
-732 -758 0
-732 -759 0
-732 -760 0
-733 -734 0
-733 -735 0
-733 -736 0
-733 -737 0
-733 -738 0
-733 -739 0
-733 -740 0
-733 -741 0
-733 -742 0
-733 -743 0
-733 -744 0
-733 -745 0
-733 -746 0
-733 -747 0
-733 -748 0
-733 -749 0
-733 -750 0
-733 -751 0
-733 -752 0
-733 -753 0
-733 -754 0
-733 -755 0
-733 -756 0
-733 -757 0
-733 -758 0
-733 -759 0
-733 -760 0
-734 -735 0
-734 -736 0
-734 -737 0
-734 -738 0
-734 -739 0
-734 -740 0
-734 -741 0
-734 -742 0
-734 -743 0
-734 -744 0
-734 -745 0
-734 -746 0
-734 -747 0
-734 -748 0
-734 -749 0
-734 -750 0
-734 -751 0
-734 -752 0
-734 -753 0
-734 -754 0
-734 -755 0
-734 -756 0
-734 -757 0
-734 -758 0
-734 -759 0
-734 -760 0
-735 -736 0
-735 -737 0
-735 -738 0
-735 -739 0
-735 -740 0
-735 -741 0
-735 -742 0
-735 -743 0
-735 -744 0
-735 -745 0
-735 -746 0
-735 -747 0
-735 -748 0
-735 -749 0
-735 -750 0
-735 -751 0
-735 -752 0
-735 -753 0
-735 -754 0
-735 -755 0
-735 -756 0
-735 -757 0
-735 -758 0
-735 -759 0
-735 -760 0
-736 -737 0
-736 -738 0
-736 -739 0
-736 -740 0
-736 -741 0
-736 -742 0
-736 -743 0
-736 -744 0
-736 -745 0
-736 -746 0
-736 -747 0
-736 -748 0
-736 -749 0
-736 -750 0
-736 -751 0
-736 -752 0
-736 -753 0
-736 -754 0
-736 -755 0
-736 -756 0
-736 -757 0
-736 -758 0
-736 -759 0
-736 -760 0
-737 -738 0
-737 -739 0
-737 -740 0
-737 -741 0
-737 -742 0
-737 -743 0
-737 -744 0
-737 -745 0
-737 -746 0
-737 -747 0
-737 -748 0
-737 -749 0
-737 -750 0
-737 -751 0
-737 -752 0
-737 -753 0
-737 -754 0
-737 -755 0
-737 -756 0
-737 -757 0
-737 -758 0
-737 -759 0
-737 -760 0
-738 -739 0
-738 -740 0
-738 -741 0
-738 -742 0
-738 -743 0
-738 -744 0
-738 -745 0
-738 -746 0
-738 -747 0
-738 -748 0
-738 -749 0
-738 -750 0
-738 -751 0
-738 -752 0
-738 -753 0
-738 -754 0
-738 -755 0
-738 -756 0
-738 -757 0
-738 -758 0
-738 -759 0
-738 -760 0
-739 -740 0
-739 -741 0
-739 -742 0
-739 -743 0
-739 -744 0
-739 -745 0
-739 -746 0
-739 -747 0
-739 -748 0
-739 -749 0
-739 -750 0
-739 -751 0
-739 -752 0
-739 -753 0
-739 -754 0
-739 -755 0
-739 -756 0
-739 -757 0
-739 -758 0
-739 -759 0
-739 -760 0
-740 -741 0
-740 -742 0
-740 -743 0
-740 -744 0
-740 -745 0
-740 -746 0
-740 -747 0
-740 -748 0
-740 -749 0
-740 -750 0
-740 -751 0
-740 -752 0
-740 -753 0
-740 -754 0
-740 -755 0
-740 -756 0
-740 -757 0
-740 -758 0
-740 -759 0
-740 -760 0
-741 -742 0
-741 -743 0
-741 -744 0
-741 -745 0
-741 -746 0
-741 -747 0
-741 -748 0
-741 -749 0
-741 -750 0
-741 -751 0
-741 -752 0
-741 -753 0
-741 -754 0
-741 -755 0
-741 -756 0
-741 -757 0
-741 -758 0
-741 -759 0
-741 -760 0
-742 -743 0
-742 -744 0
-742 -745 0
-742 -746 0
-742 -747 0
-742 -748 0
-742 -749 0
-742 -750 0
-742 -751 0
-742 -752 0
-742 -753 0
-742 -754 0
-742 -755 0
-742 -756 0
-742 -757 0
-742 -758 0
-742 -759 0
-742 -760 0
-743 -744 0
-743 -745 0
-743 -746 0
-743 -747 0
-743 -748 0
-743 -749 0
-743 -750 0
-743 -751 0
-743 -752 0
-743 -753 0
-743 -754 0
-743 -755 0
-743 -756 0
-743 -757 0
-743 -758 0
-743 -759 0
-743 -760 0
-744 -745 0
-744 -746 0
-744 -747 0
-744 -748 0
-744 -749 0
-744 -750 0
-744 -751 0
-744 -752 0
-744 -753 0
-744 -754 0
-744 -755 0
-744 -756 0
-744 -757 0
-744 -758 0
-744 -759 0
-744 -760 0
-745 -746 0
-745 -747 0
-745 -748 0
-745 -749 0
-745 -750 0
-745 -751 0
-745 -752 0
-745 -753 0
-745 -754 0
-745 -755 0
-745 -756 0
-745 -757 0
-745 -758 0
-745 -759 0
-745 -760 0
-746 -747 0
-746 -748 0
-746 -749 0
-746 -750 0
-746 -751 0
-746 -752 0
-746 -753 0
-746 -754 0
-746 -755 0
-746 -756 0
-746 -757 0
-746 -758 0
-746 -759 0
-746 -760 0
-747 -748 0
-747 -749 0
-747 -750 0
-747 -751 0
-747 -752 0
-747 -753 0
-747 -754 0
-747 -755 0
-747 -756 0
-747 -757 0
-747 -758 0
-747 -759 0
-747 -760 0
-748 -749 0
-748 -750 0
-748 -751 0
-748 -752 0
-748 -753 0
-748 -754 0
-748 -755 0
-748 -756 0
-748 -757 0
-748 -758 0
-748 -759 0
-748 -760 0
-749 -750 0
-749 -751 0
-749 -752 0
-749 -753 0
-749 -754 0
-749 -755 0
-749 -756 0
-749 -757 0
-749 -758 0
-749 -759 0
-749 -760 0
-750 -751 0
-750 -752 0
-750 -753 0
-750 -754 0
-750 -755 0
-750 -756 0
-750 -757 0
-750 -758 0
-750 -759 0
-750 -760 0
-751 -752 0
-751 -753 0
-751 -754 0
-751 -755 0
-751 -756 0
-751 -757 0
-751 -758 0
-751 -759 0
-751 -760 0
-752 -753 0
-752 -754 0
-752 -755 0
-752 -756 0
-752 -757 0
-752 -758 0
-752 -759 0
-752 -760 0
-753 -754 0
-753 -755 0
-753 -756 0
-753 -757 0
-753 -758 0
-753 -759 0
-753 -760 0
-754 -755 0
-754 -756 0
-754 -757 0
-754 -758 0
-754 -759 0
-754 -760 0
-755 -756 0
-755 -757 0
-755 -758 0
-755 -759 0
-755 -760 0
-756 -757 0
-756 -758 0
-756 -759 0
-756 -760 0
-757 -758 0
-757 -759 0
-757 -760 0
-758 -759 0
-758 -760 0
-759 -760 0
-692 124 726 0
-692 -124 727 0
-693 124 727 0
-693 -124 728 0
-694 124 728 0
-694 -124 729 0
-695 124 729 0
-695 -124 730 0
-696 124 730 0
-696 -124 731 0
-697 124 731 0
-697 -124 732 0
-698 124 732 0
-698 -124 733 0
-699 124 733 0
-699 -124 734 0
-700 124 734 0
-700 -124 735 0
-701 124 735 0
-701 -124 736 0
-702 124 736 0
-702 -124 737 0
-703 124 737 0
-703 -124 738 0
-704 124 738 0
-704 -124 739 0
-705 124 739 0
-705 -124 740 0
-706 124 740 0
-706 -124 741 0
-707 124 741 0
-707 -124 742 0
-708 124 742 0
-708 -124 743 0
-709 124 743 0
-709 -124 744 0
-710 124 744 0
-710 -124 745 0
-711 124 745 0
-711 -124 746 0
-712 124 746 0
-712 -124 747 0
-713 124 747 0
-713 -124 748 0
-714 124 748 0
-714 -124 749 0
-715 124 749 0
-715 -124 750 0
-716 124 750 0
-716 -124 751 0
-717 124 751 0
-717 -124 752 0
-718 124 752 0
-718 -124 753 0
-719 124 753 0
-719 -124 754 0
-720 124 754 0
-720 -124 755 0
-721 124 755 0
-721 -124 756 0
-722 124 756 0
-722 -124 757 0
-723 124 757 0
-723 -124 758 0
-724 124 758 0
-724 -124 759 0
-725 124 759 0
-725 -124 760 0
761 762 763 764 765 766 767 768 769 770 771 772 773 774 775 776 777 778 779 780 781 782 783 784 785 786 787 788 789 790 791 792 793 794 795 796 0
-761 -762 0
-761 -763 0
-761 -764 0
-761 -765 0
-761 -766 0
-761 -767 0
-761 -768 0
-761 -769 0
-761 -770 0
-761 -771 0
-761 -772 0
-761 -773 0
-761 -774 0
-761 -775 0
-761 -776 0
-761 -777 0
-761 -778 0
-761 -779 0
-761 -780 0
-761 -781 0
-761 -782 0
-761 -783 0
-761 -784 0
-761 -785 0
-761 -786 0
-761 -787 0
-761 -788 0
-761 -789 0
-761 -790 0
-761 -791 0
-761 -792 0
-761 -793 0
-761 -794 0
-761 -795 0
-761 -796 0
-762 -763 0
-762 -764 0
-762 -765 0
-762 -766 0
-762 -767 0
-762 -768 0
-762 -769 0
-762 -770 0
-762 -771 0
-762 -772 0
-762 -773 0
-762 -774 0
-762 -775 0
-762 -776 0
-762 -777 0
-762 -778 0
-762 -779 0
-762 -780 0
-762 -781 0
-762 -782 0
-762 -783 0
-762 -784 0
-762 -785 0
-762 -786 0
-762 -787 0
-762 -788 0
-762 -789 0
-762 -790 0
-762 -791 0
-762 -792 0
-762 -793 0
-762 -794 0
-762 -795 0
-762 -796 0
-763 -764 0
-763 -765 0
-763 -766 0
-763 -767 0
-763 -768 0
-763 -769 0
-763 -770 0
-763 -771 0
-763 -772 0
-763 -773 0
-763 -774 0
-763 -775 0
-763 -776 0
-763 -777 0
-763 -778 0
-763 -779 0
-763 -780 0
-763 -781 0
-763 -782 0
-763 -783 0
-763 -784 0
-763 -785 0
-763 -786 0
-763 -787 0
-763 -788 0
-763 -789 0
-763 -790 0
-763 -791 0
-763 -792 0
-763 -793 0
-763 -794 0
-763 -795 0
-763 -796 0
-764 -765 0
-764 -766 0
-764 -767 0
-764 -768 0
-764 -769 0
-764 -770 0
-764 -771 0
-764 -772 0
-764 -773 0
-764 -774 0
-764 -775 0
-764 -776 0
-764 -777 0
-764 -778 0
-764 -779 0
-764 -780 0
-764 -781 0
-764 -782 0
-764 -783 0
-764 -784 0
-764 -785 0
-764 -786 0
-764 -787 0
-764 -788 0
-764 -789 0
-764 -790 0
-764 -791 0
-764 -792 0
-764 -793 0
-764 -794 0
-764 -795 0
-764 -796 0
-765 -766 0
-765 -767 0
-765 -768 0
-765 -769 0
-765 -770 0
-765 -771 0
-765 -772 0
-765 -773 0
-765 -774 0
-765 -775 0
-765 -776 0
-765 -777 0
-765 -778 0
-765 -779 0
-765 -780 0
-765 -781 0
-765 -782 0
-765 -783 0
-765 -784 0
-765 -785 0
-765 -786 0
-765 -787 0
-765 -788 0
-765 -789 0
-765 -790 0
-765 -791 0
-765 -792 0
-765 -793 0
-765 -794 0
-765 -795 0
-765 -796 0
-766 -767 0
-766 -768 0
-766 -769 0
-766 -770 0
-766 -771 0
-766 -772 0
-766 -773 0
-766 -774 0
-766 -775 0
-766 -776 0
-766 -777 0
-766 -778 0
-766 -779 0
-766 -780 0
-766 -781 0
-766 -782 0
-766 -783 0
-766 -784 0
-766 -785 0
-766 -786 0
-766 -787 0
-766 -788 0
-766 -789 0
-766 -790 0
-766 -791 0
-766 -792 0
-766 -793 0
-766 -794 0
-766 -795 0
-766 -796 0
-767 -768 0
-767 -769 0
-767 -770 0
-767 -771 0
-767 -772 0
-767 -773 0
-767 -774 0
-767 -775 0
-767 -776 0
-767 -777 0
-767 -778 0
-767 -779 0
-767 -780 0
-767 -781 0
-767 -782 0
-767 -783 0
-767 -784 0
-767 -785 0
-767 -786 0
-767 -787 0
-767 -788 0
-767 -789 0
-767 -790 0
-767 -791 0
-767 -792 0
-767 -793 0
-767 -794 0
-767 -795 0
-767 -796 0
-768 -769 0
-768 -770 0
-768 -771 0
-768 -772 0
-768 -773 0
-768 -774 0
-768 -775 0
-768 -776 0
-768 -777 0
-768 -778 0
-768 -779 0
-768 -780 0
-768 -781 0
-768 -782 0
-768 -783 0
-768 -784 0
-768 -785 0
-768 -786 0
-768 -787 0
-768 -788 0
-768 -789 0
-768 -790 0
-768 -791 0
-768 -792 0
-768 -793 0
-768 -794 0
-768 -795 0
-768 -796 0
-769 -770 0
-769 -771 0
-769 -772 0
-769 -773 0
-769 -774 0
-769 -775 0
-769 -776 0
-769 -777 0
-769 -778 0
-769 -779 0
-769 -780 0
-769 -781 0
-769 -782 0
-769 -783 0
-769 -784 0
-769 -785 0
-769 -786 0
-769 -787 0
-769 -788 0
-769 -789 0
-769 -790 0
-769 -791 0
-769 -792 0
-769 -793 0
-769 -794 0
-769 -795 0
-769 -796 0
-770 -771 0
-770 -772 0
-770 -773 0
-770 -774 0
-770 -775 0
-770 -776 0
-770 -777 0
-770 -778 0
-770 -779 0
-770 -780 0
-770 -781 0
-770 -782 0
-770 -783 0
-770 -784 0
-770 -785 0
-770 -786 0
-770 -787 0
-770 -788 0
-770 -789 0
-770 -790 0
-770 -791 0
-770 -792 0
-770 -793 0
-770 -794 0
-770 -795 0
-770 -796 0
-771 -772 0
-771 -773 0
-771 -774 0
-771 -775 0
-771 -776 0
-771 -777 0
-771 -778 0
-771 -779 0
-771 -780 0
-771 -781 0
-771 -782 0
-771 -783 0
-771 -784 0
-771 -785 0
-771 -786 0
-771 -787 0
-771 -788 0
-771 -789 0
-771 -790 0
-771 -791 0
-771 -792 0
-771 -793 0
-771 -794 0
-771 -795 0
-771 -796 0
-772 -773 0
-772 -774 0
-772 -775 0
-772 -776 0
-772 -777 0
-772 -778 0
-772 -779 0
-772 -780 0
-772 -781 0
-772 -782 0
-772 -783 0
-772 -784 0
-772 -785 0
-772 -786 0
-772 -787 0
-772 -788 0
-772 -789 0
-772 -790 0
-772 -791 0
-772 -792 0
-772 -793 0
-772 -794 0
-772 -795 0
-772 -796 0
-773 -774 0
-773 -775 0
-773 -776 0
-773 -777 0
-773 -778 0
-773 -779 0
-773 -780 0
-773 -781 0
-773 -782 0
-773 -783 0
-773 -784 0
-773 -785 0
-773 -786 0
-773 -787 0
-773 -788 0
-773 -789 0
-773 -790 0
-773 -791 0
-773 -792 0
-773 -793 0
-773 -794 0
-773 -795 0
-773 -796 0
-774 -775 0
-774 -776 0
-774 -777 0
-774 -778 0
-774 -779 0
-774 -780 0
-774 -781 0
-774 -782 0
-774 -783 0
-774 -784 0
-774 -785 0
-774 -786 0
-774 -787 0
-774 -788 0
-774 -789 0
-774 -790 0
-774 -791 0
-774 -792 0
-774 -793 0
-774 -794 0
-774 -795 0
-774 -796 0
-775 -776 0
-775 -777 0
-775 -778 0
-775 -779 0
-775 -780 0
-775 -781 0
-775 -782 0
-775 -783 0
-775 -784 0
-775 -785 0
-775 -786 0
-775 -787 0
-775 -788 0
-775 -789 0
-775 -790 0
-775 -791 0
-775 -792 0
-775 -793 0
-775 -794 0
-775 -795 0
-775 -796 0
-776 -777 0
-776 -778 0
-776 -779 0
-776 -780 0
-776 -781 0
-776 -782 0
-776 -783 0
-776 -784 0
-776 -785 0
-776 -786 0
-776 -787 0
-776 -788 0
-776 -789 0
-776 -790 0
-776 -791 0
-776 -792 0
-776 -793 0
-776 -794 0
-776 -795 0
-776 -796 0
-777 -778 0
-777 -779 0
-777 -780 0
-777 -781 0
-777 -782 0
-777 -783 0
-777 -784 0
-777 -785 0
-777 -786 0
-777 -787 0
-777 -788 0
-777 -789 0
-777 -790 0
-777 -791 0
-777 -792 0
-777 -793 0
-777 -794 0
-777 -795 0
-777 -796 0
-778 -779 0
-778 -780 0
-778 -781 0
-778 -782 0
-778 -783 0
-778 -784 0
-778 -785 0
-778 -786 0
-778 -787 0
-778 -788 0
-778 -789 0
-778 -790 0
-778 -791 0
-778 -792 0
-778 -793 0
-778 -794 0
-778 -795 0
-778 -796 0
-779 -780 0
-779 -781 0
-779 -782 0
-779 -783 0
-779 -784 0
-779 -785 0
-779 -786 0
-779 -787 0
-779 -788 0
-779 -789 0
-779 -790 0
-779 -791 0
-779 -792 0
-779 -793 0
-779 -794 0
-779 -795 0
-779 -796 0
-780 -781 0
-780 -782 0
-780 -783 0
-780 -784 0
-780 -785 0
-780 -786 0
-780 -787 0
-780 -788 0
-780 -789 0
-780 -790 0
-780 -791 0
-780 -792 0
-780 -793 0
-780 -794 0
-780 -795 0
-780 -796 0
-781 -782 0
-781 -783 0
-781 -784 0
-781 -785 0
-781 -786 0
-781 -787 0
-781 -788 0
-781 -789 0
-781 -790 0
-781 -791 0
-781 -792 0
-781 -793 0
-781 -794 0
-781 -795 0
-781 -796 0
-782 -783 0
-782 -784 0
-782 -785 0
-782 -786 0
-782 -787 0
-782 -788 0
-782 -789 0
-782 -790 0
-782 -791 0
-782 -792 0
-782 -793 0
-782 -794 0
-782 -795 0
-782 -796 0
-783 -784 0
-783 -785 0
-783 -786 0
-783 -787 0
-783 -788 0
-783 -789 0
-783 -790 0
-783 -791 0
-783 -792 0
-783 -793 0
-783 -794 0
-783 -795 0
-783 -796 0
-784 -785 0
-784 -786 0
-784 -787 0
-784 -788 0
-784 -789 0
-784 -790 0
-784 -791 0
-784 -792 0
-784 -793 0
-784 -794 0
-784 -795 0
-784 -796 0
-785 -786 0
-785 -787 0
-785 -788 0
-785 -789 0
-785 -790 0
-785 -791 0
-785 -792 0
-785 -793 0
-785 -794 0
-785 -795 0
-785 -796 0
-786 -787 0
-786 -788 0
-786 -789 0
-786 -790 0
-786 -791 0
-786 -792 0
-786 -793 0
-786 -794 0
-786 -795 0
-786 -796 0
-787 -788 0
-787 -789 0
-787 -790 0
-787 -791 0
-787 -792 0
-787 -793 0
-787 -794 0
-787 -795 0
-787 -796 0
-788 -789 0
-788 -790 0
-788 -791 0
-788 -792 0
-788 -793 0
-788 -794 0
-788 -795 0
-788 -796 0
-789 -790 0
-789 -791 0
-789 -792 0
-789 -793 0
-789 -794 0
-789 -795 0
-789 -796 0
-790 -791 0
-790 -792 0
-790 -793 0
-790 -794 0
-790 -795 0
-790 -796 0
-791 -792 0
-791 -793 0
-791 -794 0
-791 -795 0
-791 -796 0
-792 -793 0
-792 -794 0
-792 -795 0
-792 -796 0
-793 -794 0
-793 -795 0
-793 -796 0
-794 -795 0
-794 -796 0
-795 -796 0
-726 125 761 0
-726 -125 762 0
-727 125 762 0
-727 -125 763 0
-728 125 763 0
-728 -125 764 0
-729 125 764 0
-729 -125 765 0
-730 125 765 0
-730 -125 766 0
-731 125 766 0
-731 -125 767 0
-732 125 767 0
-732 -125 768 0
-733 125 768 0
-733 -125 769 0
-734 125 769 0
-734 -125 770 0
-735 125 770 0
-735 -125 771 0
-736 125 771 0
-736 -125 772 0
-737 125 772 0
-737 -125 773 0
-738 125 773 0
-738 -125 774 0
-739 125 774 0
-739 -125 775 0
-740 125 775 0
-740 -125 776 0
-741 125 776 0
-741 -125 777 0
-742 125 777 0
-742 -125 778 0
-743 125 778 0
-743 -125 779 0
-744 125 779 0
-744 -125 780 0
-745 125 780 0
-745 -125 781 0
-746 125 781 0
-746 -125 782 0
-747 125 782 0
-747 -125 783 0
-748 125 783 0
-748 -125 784 0
-749 125 784 0
-749 -125 785 0
-750 125 785 0
-750 -125 786 0
-751 125 786 0
-751 -125 787 0
-752 125 787 0
-752 -125 788 0
-753 125 788 0
-753 -125 789 0
-754 125 789 0
-754 -125 790 0
-755 125 790 0
-755 -125 791 0
-756 125 791 0
-756 -125 792 0
-757 125 792 0
-757 -125 793 0
-758 125 793 0
-758 -125 794 0
-759 125 794 0
-759 -125 795 0
-760 125 795 0
-760 -125 796 0
797 798 799 800 801 802 803 804 805 806 807 808 809 810 811 812 813 814 815 816 817 818 819 820 821 822 823 824 825 826 827 828 829 830 831 832 833 0
-797 -798 0
-797 -799 0
-797 -800 0
-797 -801 0
-797 -802 0
-797 -803 0
-797 -804 0
-797 -805 0
-797 -806 0
-797 -807 0
-797 -808 0
-797 -809 0
-797 -810 0
-797 -811 0
-797 -812 0
-797 -813 0
-797 -814 0
-797 -815 0
-797 -816 0
-797 -817 0
-797 -818 0
-797 -819 0
-797 -820 0
-797 -821 0
-797 -822 0
-797 -823 0
-797 -824 0
-797 -825 0
-797 -826 0
-797 -827 0
-797 -828 0
-797 -829 0
-797 -830 0
-797 -831 0
-797 -832 0
-797 -833 0
-798 -799 0
-798 -800 0
-798 -801 0
-798 -802 0
-798 -803 0
-798 -804 0
-798 -805 0
-798 -806 0
-798 -807 0
-798 -808 0
-798 -809 0
-798 -810 0
-798 -811 0
-798 -812 0
-798 -813 0
-798 -814 0
-798 -815 0
-798 -816 0
-798 -817 0
-798 -818 0
-798 -819 0
-798 -820 0
-798 -821 0
-798 -822 0
-798 -823 0
-798 -824 0
-798 -825 0
-798 -826 0
-798 -827 0
-798 -828 0
-798 -829 0
-798 -830 0
-798 -831 0
-798 -832 0
-798 -833 0
-799 -800 0
-799 -801 0
-799 -802 0
-799 -803 0
-799 -804 0
-799 -805 0
-799 -806 0
-799 -807 0
-799 -808 0
-799 -809 0
-799 -810 0
-799 -811 0
-799 -812 0
-799 -813 0
-799 -814 0
-799 -815 0
-799 -816 0
-799 -817 0
-799 -818 0
-799 -819 0
-799 -820 0
-799 -821 0
-799 -822 0
-799 -823 0
-799 -824 0
-799 -825 0
-799 -826 0
-799 -827 0
-799 -828 0
-799 -829 0
-799 -830 0
-799 -831 0
-799 -832 0
-799 -833 0
-800 -801 0
-800 -802 0
-800 -803 0
-800 -804 0
-800 -805 0
-800 -806 0
-800 -807 0
-800 -808 0
-800 -809 0
-800 -810 0
-800 -811 0
-800 -812 0
-800 -813 0
-800 -814 0
-800 -815 0
-800 -816 0
-800 -817 0
-800 -818 0
-800 -819 0
-800 -820 0
-800 -821 0
-800 -822 0
-800 -823 0
-800 -824 0
-800 -825 0
-800 -826 0
-800 -827 0
-800 -828 0
-800 -829 0
-800 -830 0
-800 -831 0
-800 -832 0
-800 -833 0
-801 -802 0
-801 -803 0
-801 -804 0
-801 -805 0
-801 -806 0
-801 -807 0
-801 -808 0
-801 -809 0
-801 -810 0
-801 -811 0
-801 -812 0
-801 -813 0
-801 -814 0
-801 -815 0
-801 -816 0
-801 -817 0
-801 -818 0
-801 -819 0
-801 -820 0
-801 -821 0
-801 -822 0
-801 -823 0
-801 -824 0
-801 -825 0
-801 -826 0
-801 -827 0
-801 -828 0
-801 -829 0
-801 -830 0
-801 -831 0
-801 -832 0
-801 -833 0
-802 -803 0
-802 -804 0
-802 -805 0
-802 -806 0
-802 -807 0
-802 -808 0
-802 -809 0
-802 -810 0
-802 -811 0
-802 -812 0
-802 -813 0
-802 -814 0
-802 -815 0
-802 -816 0
-802 -817 0
-802 -818 0
-802 -819 0
-802 -820 0
-802 -821 0
-802 -822 0
-802 -823 0
-802 -824 0
-802 -825 0
-802 -826 0
-802 -827 0
-802 -828 0
-802 -829 0
-802 -830 0
-802 -831 0
-802 -832 0
-802 -833 0
-803 -804 0
-803 -805 0
-803 -806 0
-803 -807 0
-803 -808 0
-803 -809 0
-803 -810 0
-803 -811 0
-803 -812 0
-803 -813 0
-803 -814 0
-803 -815 0
-803 -816 0
-803 -817 0
-803 -818 0
-803 -819 0
-803 -820 0
-803 -821 0
-803 -822 0
-803 -823 0
-803 -824 0
-803 -825 0
-803 -826 0
-803 -827 0
-803 -828 0
-803 -829 0
-803 -830 0
-803 -831 0
-803 -832 0
-803 -833 0
-804 -805 0
-804 -806 0
-804 -807 0
-804 -808 0
-804 -809 0
-804 -810 0
-804 -811 0
-804 -812 0
-804 -813 0
-804 -814 0
-804 -815 0
-804 -816 0
-804 -817 0
-804 -818 0
-804 -819 0
-804 -820 0
-804 -821 0
-804 -822 0
-804 -823 0
-804 -824 0
-804 -825 0
-804 -826 0
-804 -827 0
-804 -828 0
-804 -829 0
-804 -830 0
-804 -831 0
-804 -832 0
-804 -833 0
-805 -806 0
-805 -807 0
-805 -808 0
-805 -809 0
-805 -810 0
-805 -811 0
-805 -812 0
-805 -813 0
-805 -814 0
-805 -815 0
-805 -816 0
-805 -817 0
-805 -818 0
-805 -819 0
-805 -820 0
-805 -821 0
-805 -822 0
-805 -823 0
-805 -824 0
-805 -825 0
-805 -826 0
-805 -827 0
-805 -828 0
-805 -829 0
-805 -830 0
-805 -831 0
-805 -832 0
-805 -833 0
-806 -807 0
-806 -808 0
-806 -809 0
-806 -810 0
-806 -811 0
-806 -812 0
-806 -813 0
-806 -814 0
-806 -815 0
-806 -816 0
-806 -817 0
-806 -818 0
-806 -819 0
-806 -820 0
-806 -821 0
-806 -822 0
-806 -823 0
-806 -824 0
-806 -825 0
-806 -826 0
-806 -827 0
-806 -828 0
-806 -829 0
-806 -830 0
-806 -831 0
-806 -832 0
-806 -833 0
-807 -808 0
-807 -809 0
-807 -810 0
-807 -811 0
-807 -812 0
-807 -813 0
-807 -814 0
-807 -815 0
-807 -816 0
-807 -817 0
-807 -818 0
-807 -819 0
-807 -820 0
-807 -821 0
-807 -822 0
-807 -823 0
-807 -824 0
-807 -825 0
-807 -826 0
-807 -827 0
-807 -828 0
-807 -829 0
-807 -830 0
-807 -831 0
-807 -832 0
-807 -833 0
-808 -809 0
-808 -810 0
-808 -811 0
-808 -812 0
-808 -813 0
-808 -814 0
-808 -815 0
-808 -816 0
-808 -817 0
-808 -818 0
-808 -819 0
-808 -820 0
-808 -821 0
-808 -822 0
-808 -823 0
-808 -824 0
-808 -825 0
-808 -826 0
-808 -827 0
-808 -828 0
-808 -829 0
-808 -830 0
-808 -831 0
-808 -832 0
-808 -833 0
-809 -810 0
-809 -811 0
-809 -812 0
-809 -813 0
-809 -814 0
-809 -815 0
-809 -816 0
-809 -817 0
-809 -818 0
-809 -819 0
-809 -820 0
-809 -821 0
-809 -822 0
-809 -823 0
-809 -824 0
-809 -825 0
-809 -826 0
-809 -827 0
-809 -828 0
-809 -829 0
-809 -830 0
-809 -831 0
-809 -832 0
-809 -833 0
-810 -811 0
-810 -812 0
-810 -813 0
-810 -814 0
-810 -815 0
-810 -816 0
-810 -817 0
-810 -818 0
-810 -819 0
-810 -820 0
-810 -821 0
-810 -822 0
-810 -823 0
-810 -824 0
-810 -825 0
-810 -826 0
-810 -827 0
-810 -828 0
-810 -829 0
-810 -830 0
-810 -831 0
-810 -832 0
-810 -833 0
-811 -812 0
-811 -813 0
-811 -814 0
-811 -815 0
-811 -816 0
-811 -817 0
-811 -818 0
-811 -819 0
-811 -820 0
-811 -821 0
-811 -822 0
-811 -823 0
-811 -824 0
-811 -825 0
-811 -826 0
-811 -827 0
-811 -828 0
-811 -829 0
-811 -830 0
-811 -831 0
-811 -832 0
-811 -833 0
-812 -813 0
-812 -814 0
-812 -815 0
-812 -816 0
-812 -817 0
-812 -818 0
-812 -819 0
-812 -820 0
-812 -821 0
-812 -822 0
-812 -823 0
-812 -824 0
-812 -825 0
-812 -826 0
-812 -827 0
-812 -828 0
-812 -829 0
-812 -830 0
-812 -831 0
-812 -832 0
-812 -833 0
-813 -814 0
-813 -815 0
-813 -816 0
-813 -817 0
-813 -818 0
-813 -819 0
-813 -820 0
-813 -821 0
-813 -822 0
-813 -823 0
-813 -824 0
-813 -825 0
-813 -826 0
-813 -827 0
-813 -828 0
-813 -829 0
-813 -830 0
-813 -831 0
-813 -832 0
-813 -833 0
-814 -815 0
-814 -816 0
-814 -817 0
-814 -818 0
-814 -819 0
-814 -820 0
-814 -821 0
-814 -822 0
-814 -823 0
-814 -824 0
-814 -825 0
-814 -826 0
-814 -827 0
-814 -828 0
-814 -829 0
-814 -830 0
-814 -831 0
-814 -832 0
-814 -833 0
-815 -816 0
-815 -817 0
-815 -818 0
-815 -819 0
-815 -820 0
-815 -821 0
-815 -822 0
-815 -823 0
-815 -824 0
-815 -825 0
-815 -826 0
-815 -827 0
-815 -828 0
-815 -829 0
-815 -830 0
-815 -831 0
-815 -832 0
-815 -833 0
-816 -817 0
-816 -818 0
-816 -819 0
-816 -820 0
-816 -821 0
-816 -822 0
-816 -823 0
-816 -824 0
-816 -825 0
-816 -826 0
-816 -827 0
-816 -828 0
-816 -829 0
-816 -830 0
-816 -831 0
-816 -832 0
-816 -833 0
-817 -818 0
-817 -819 0
-817 -820 0
-817 -821 0
-817 -822 0
-817 -823 0
-817 -824 0
-817 -825 0
-817 -826 0
-817 -827 0
-817 -828 0
-817 -829 0
-817 -830 0
-817 -831 0
-817 -832 0
-817 -833 0
-818 -819 0
-818 -820 0
-818 -821 0
-818 -822 0
-818 -823 0
-818 -824 0
-818 -825 0
-818 -826 0
-818 -827 0
-818 -828 0
-818 -829 0
-818 -830 0
-818 -831 0
-818 -832 0
-818 -833 0
-819 -820 0
-819 -821 0
-819 -822 0
-819 -823 0
-819 -824 0
-819 -825 0
-819 -826 0
-819 -827 0
-819 -828 0
-819 -829 0
-819 -830 0
-819 -831 0
-819 -832 0
-819 -833 0
-820 -821 0
-820 -822 0
-820 -823 0
-820 -824 0
-820 -825 0
-820 -826 0
-820 -827 0
-820 -828 0
-820 -829 0
-820 -830 0
-820 -831 0
-820 -832 0
-820 -833 0
-821 -822 0
-821 -823 0
-821 -824 0
-821 -825 0
-821 -826 0
-821 -827 0
-821 -828 0
-821 -829 0
-821 -830 0
-821 -831 0
-821 -832 0
-821 -833 0
-822 -823 0
-822 -824 0
-822 -825 0
-822 -826 0
-822 -827 0
-822 -828 0
-822 -829 0
-822 -830 0
-822 -831 0
-822 -832 0
-822 -833 0
-823 -824 0
-823 -825 0
-823 -826 0
-823 -827 0
-823 -828 0
-823 -829 0
-823 -830 0
-823 -831 0
-823 -832 0
-823 -833 0
-824 -825 0
-824 -826 0
-824 -827 0
-824 -828 0
-824 -829 0
-824 -830 0
-824 -831 0
-824 -832 0
-824 -833 0
-825 -826 0
-825 -827 0
-825 -828 0
-825 -829 0
-825 -830 0
-825 -831 0
-825 -832 0
-825 -833 0
-826 -827 0
-826 -828 0
-826 -829 0
-826 -830 0
-826 -831 0
-826 -832 0
-826 -833 0
-827 -828 0
-827 -829 0
-827 -830 0
-827 -831 0
-827 -832 0
-827 -833 0
-828 -829 0
-828 -830 0
-828 -831 0
-828 -832 0
-828 -833 0
-829 -830 0
-829 -831 0
-829 -832 0
-829 -833 0
-830 -831 0
-830 -832 0
-830 -833 0
-831 -832 0
-831 -833 0
-832 -833 0
-761 126 797 0
-761 -126 798 0
-762 126 798 0
-762 -126 799 0
-763 126 799 0
-763 -126 800 0
-764 126 800 0
-764 -126 801 0
-765 126 801 0
-765 -126 802 0
-766 126 802 0
-766 -126 803 0
-767 126 803 0
-767 -126 804 0
-768 126 804 0
-768 -126 805 0
-769 126 805 0
-769 -126 806 0
-770 126 806 0
-770 -126 807 0
-771 126 807 0
-771 -126 808 0
-772 126 808 0
-772 -126 809 0
-773 126 809 0
-773 -126 810 0
-774 126 810 0
-774 -126 811 0
-775 126 811 0
-775 -126 812 0
-776 126 812 0
-776 -126 813 0
-777 126 813 0
-777 -126 814 0
-778 126 814 0
-778 -126 815 0
-779 126 815 0
-779 -126 816 0
-780 126 816 0
-780 -126 817 0
-781 126 817 0
-781 -126 818 0
-782 126 818 0
-782 -126 819 0
-783 126 819 0
-783 -126 820 0
-784 126 820 0
-784 -126 821 0
-785 126 821 0
-785 -126 822 0
-786 126 822 0
-786 -126 823 0
-787 126 823 0
-787 -126 824 0
-788 126 824 0
-788 -126 825 0
-789 126 825 0
-789 -126 826 0
-790 126 826 0
-790 -126 827 0
-791 126 827 0
-791 -126 828 0
-792 126 828 0
-792 -126 829 0
-793 126 829 0
-793 -126 830 0
-794 126 830 0
-794 -126 831 0
-795 126 831 0
-795 -126 832 0
-796 126 832 0
-796 -126 833 0
834 835 836 837 838 839 840 841 842 843 844 845 846 847 848 849 850 851 852 853 854 855 856 857 858 859 860 861 862 863 864 865 866 867 868 869 870 871 0
-834 -835 0
-834 -836 0
-834 -837 0
-834 -838 0
-834 -839 0
-834 -840 0
-834 -841 0
-834 -842 0
-834 -843 0
-834 -844 0
-834 -845 0
-834 -846 0
-834 -847 0
-834 -848 0
-834 -849 0
-834 -850 0
-834 -851 0
-834 -852 0
-834 -853 0
-834 -854 0
-834 -855 0
-834 -856 0
-834 -857 0
-834 -858 0
-834 -859 0
-834 -860 0
-834 -861 0
-834 -862 0
-834 -863 0
-834 -864 0
-834 -865 0
-834 -866 0
-834 -867 0
-834 -868 0
-834 -869 0
-834 -870 0
-834 -871 0
-835 -836 0
-835 -837 0
-835 -838 0
-835 -839 0
-835 -840 0
-835 -841 0
-835 -842 0
-835 -843 0
-835 -844 0
-835 -845 0
-835 -846 0
-835 -847 0
-835 -848 0
-835 -849 0
-835 -850 0
-835 -851 0
-835 -852 0
-835 -853 0
-835 -854 0
-835 -855 0
-835 -856 0
-835 -857 0
-835 -858 0
-835 -859 0
-835 -860 0
-835 -861 0
-835 -862 0
-835 -863 0
-835 -864 0
-835 -865 0
-835 -866 0
-835 -867 0
-835 -868 0
-835 -869 0
-835 -870 0
-835 -871 0
-836 -837 0
-836 -838 0
-836 -839 0
-836 -840 0
-836 -841 0
-836 -842 0
-836 -843 0
-836 -844 0
-836 -845 0
-836 -846 0
-836 -847 0
-836 -848 0
-836 -849 0
-836 -850 0
-836 -851 0
-836 -852 0
-836 -853 0
-836 -854 0
-836 -855 0
-836 -856 0
-836 -857 0
-836 -858 0
-836 -859 0
-836 -860 0
-836 -861 0
-836 -862 0
-836 -863 0
-836 -864 0
-836 -865 0
-836 -866 0
-836 -867 0
-836 -868 0
-836 -869 0
-836 -870 0
-836 -871 0
-837 -838 0
-837 -839 0
-837 -840 0
-837 -841 0
-837 -842 0
-837 -843 0
-837 -844 0
-837 -845 0
-837 -846 0
-837 -847 0
-837 -848 0
-837 -849 0
-837 -850 0
-837 -851 0
-837 -852 0
-837 -853 0
-837 -854 0
-837 -855 0
-837 -856 0
-837 -857 0
-837 -858 0
-837 -859 0
-837 -860 0
-837 -861 0
-837 -862 0
-837 -863 0
-837 -864 0
-837 -865 0
-837 -866 0
-837 -867 0
-837 -868 0
-837 -869 0
-837 -870 0
-837 -871 0
-838 -839 0
-838 -840 0
-838 -841 0
-838 -842 0
-838 -843 0
-838 -844 0
-838 -845 0
-838 -846 0
-838 -847 0
-838 -848 0
-838 -849 0
-838 -850 0
-838 -851 0
-838 -852 0
-838 -853 0
-838 -854 0
-838 -855 0
-838 -856 0
-838 -857 0
-838 -858 0
-838 -859 0
-838 -860 0
-838 -861 0
-838 -862 0
-838 -863 0
-838 -864 0
-838 -865 0
-838 -866 0
-838 -867 0
-838 -868 0
-838 -869 0
-838 -870 0
-838 -871 0
-839 -840 0
-839 -841 0
-839 -842 0
-839 -843 0
-839 -844 0
-839 -845 0
-839 -846 0
-839 -847 0
-839 -848 0
-839 -849 0
-839 -850 0
-839 -851 0
-839 -852 0
-839 -853 0
-839 -854 0
-839 -855 0
-839 -856 0
-839 -857 0
-839 -858 0
-839 -859 0
-839 -860 0
-839 -861 0
-839 -862 0
-839 -863 0
-839 -864 0
-839 -865 0
-839 -866 0
-839 -867 0
-839 -868 0
-839 -869 0
-839 -870 0
-839 -871 0
-840 -841 0
-840 -842 0
-840 -843 0
-840 -844 0
-840 -845 0
-840 -846 0
-840 -847 0
-840 -848 0
-840 -849 0
-840 -850 0
-840 -851 0
-840 -852 0
-840 -853 0
-840 -854 0
-840 -855 0
-840 -856 0
-840 -857 0
-840 -858 0
-840 -859 0
-840 -860 0
-840 -861 0
-840 -862 0
-840 -863 0
-840 -864 0
-840 -865 0
-840 -866 0
-840 -867 0
-840 -868 0
-840 -869 0
-840 -870 0
-840 -871 0
-841 -842 0
-841 -843 0
-841 -844 0
-841 -845 0
-841 -846 0
-841 -847 0
-841 -848 0
-841 -849 0
-841 -850 0
-841 -851 0
-841 -852 0
-841 -853 0
-841 -854 0
-841 -855 0
-841 -856 0
-841 -857 0
-841 -858 0
-841 -859 0
-841 -860 0
-841 -861 0
-841 -862 0
-841 -863 0
-841 -864 0
-841 -865 0
-841 -866 0
-841 -867 0
-841 -868 0
-841 -869 0
-841 -870 0
-841 -871 0
-842 -843 0
-842 -844 0
-842 -845 0
-842 -846 0
-842 -847 0
-842 -848 0
-842 -849 0
-842 -850 0
-842 -851 0
-842 -852 0
-842 -853 0
-842 -854 0
-842 -855 0
-842 -856 0
-842 -857 0
-842 -858 0
-842 -859 0
-842 -860 0
-842 -861 0
-842 -862 0
-842 -863 0
-842 -864 0
-842 -865 0
-842 -866 0
-842 -867 0
-842 -868 0
-842 -869 0
-842 -870 0
-842 -871 0
-843 -844 0
-843 -845 0
-843 -846 0
-843 -847 0
-843 -848 0
-843 -849 0
-843 -850 0
-843 -851 0
-843 -852 0
-843 -853 0
-843 -854 0
-843 -855 0
-843 -856 0
-843 -857 0
-843 -858 0
-843 -859 0
-843 -860 0
-843 -861 0
-843 -862 0
-843 -863 0
-843 -864 0
-843 -865 0
-843 -866 0
-843 -867 0
-843 -868 0
-843 -869 0
-843 -870 0
-843 -871 0
-844 -845 0
-844 -846 0
-844 -847 0
-844 -848 0
-844 -849 0
-844 -850 0
-844 -851 0
-844 -852 0
-844 -853 0
-844 -854 0
-844 -855 0
-844 -856 0
-844 -857 0
-844 -858 0
-844 -859 0
-844 -860 0
-844 -861 0
-844 -862 0
-844 -863 0
-844 -864 0
-844 -865 0
-844 -866 0
-844 -867 0
-844 -868 0
-844 -869 0
-844 -870 0
-844 -871 0
-845 -846 0
-845 -847 0
-845 -848 0
-845 -849 0
-845 -850 0
-845 -851 0
-845 -852 0
-845 -853 0
-845 -854 0
-845 -855 0
-845 -856 0
-845 -857 0
-845 -858 0
-845 -859 0
-845 -860 0
-845 -861 0
-845 -862 0
-845 -863 0
-845 -864 0
-845 -865 0
-845 -866 0
-845 -867 0
-845 -868 0
-845 -869 0
-845 -870 0
-845 -871 0
-846 -847 0
-846 -848 0
-846 -849 0
-846 -850 0
-846 -851 0
-846 -852 0
-846 -853 0
-846 -854 0
-846 -855 0
-846 -856 0
-846 -857 0
-846 -858 0
-846 -859 0
-846 -860 0
-846 -861 0
-846 -862 0
-846 -863 0
-846 -864 0
-846 -865 0
-846 -866 0
-846 -867 0
-846 -868 0
-846 -869 0
-846 -870 0
-846 -871 0
-847 -848 0
-847 -849 0
-847 -850 0
-847 -851 0
-847 -852 0
-847 -853 0
-847 -854 0
-847 -855 0
-847 -856 0
-847 -857 0
-847 -858 0
-847 -859 0
-847 -860 0
-847 -861 0
-847 -862 0
-847 -863 0
-847 -864 0
-847 -865 0
-847 -866 0
-847 -867 0
-847 -868 0
-847 -869 0
-847 -870 0
-847 -871 0
-848 -849 0
-848 -850 0
-848 -851 0
-848 -852 0
-848 -853 0
-848 -854 0
-848 -855 0
-848 -856 0
-848 -857 0
-848 -858 0
-848 -859 0
-848 -860 0
-848 -861 0
-848 -862 0
-848 -863 0
-848 -864 0
-848 -865 0
-848 -866 0
-848 -867 0
-848 -868 0
-848 -869 0
-848 -870 0
-848 -871 0
-849 -850 0
-849 -851 0
-849 -852 0
-849 -853 0
-849 -854 0
-849 -855 0
-849 -856 0
-849 -857 0
-849 -858 0
-849 -859 0
-849 -860 0
-849 -861 0
-849 -862 0
-849 -863 0
-849 -864 0
-849 -865 0
-849 -866 0
-849 -867 0
-849 -868 0
-849 -869 0
-849 -870 0
-849 -871 0
-850 -851 0
-850 -852 0
-850 -853 0
-850 -854 0
-850 -855 0
-850 -856 0
-850 -857 0
-850 -858 0
-850 -859 0
-850 -860 0
-850 -861 0
-850 -862 0
-850 -863 0
-850 -864 0
-850 -865 0
-850 -866 0
-850 -867 0
-850 -868 0
-850 -869 0
-850 -870 0
-850 -871 0
-851 -852 0
-851 -853 0
-851 -854 0
-851 -855 0
-851 -856 0
-851 -857 0
-851 -858 0
-851 -859 0
-851 -860 0
-851 -861 0
-851 -862 0
-851 -863 0
-851 -864 0
-851 -865 0
-851 -866 0
-851 -867 0
-851 -868 0
-851 -869 0
-851 -870 0
-851 -871 0
-852 -853 0
-852 -854 0
-852 -855 0
-852 -856 0
-852 -857 0
-852 -858 0
-852 -859 0
-852 -860 0
-852 -861 0
-852 -862 0
-852 -863 0
-852 -864 0
-852 -865 0
-852 -866 0
-852 -867 0
-852 -868 0
-852 -869 0
-852 -870 0
-852 -871 0
-853 -854 0
-853 -855 0
-853 -856 0
-853 -857 0
-853 -858 0
-853 -859 0
-853 -860 0
-853 -861 0
-853 -862 0
-853 -863 0
-853 -864 0
-853 -865 0
-853 -866 0
-853 -867 0
-853 -868 0
-853 -869 0
-853 -870 0
-853 -871 0
-854 -855 0
-854 -856 0
-854 -857 0
-854 -858 0
-854 -859 0
-854 -860 0
-854 -861 0
-854 -862 0
-854 -863 0
-854 -864 0
-854 -865 0
-854 -866 0
-854 -867 0
-854 -868 0
-854 -869 0
-854 -870 0
-854 -871 0
-855 -856 0
-855 -857 0
-855 -858 0
-855 -859 0
-855 -860 0
-855 -861 0
-855 -862 0
-855 -863 0
-855 -864 0
-855 -865 0
-855 -866 0
-855 -867 0
-855 -868 0
-855 -869 0
-855 -870 0
-855 -871 0
-856 -857 0
-856 -858 0
-856 -859 0
-856 -860 0
-856 -861 0
-856 -862 0
-856 -863 0
-856 -864 0
-856 -865 0
-856 -866 0
-856 -867 0
-856 -868 0
-856 -869 0
-856 -870 0
-856 -871 0
-857 -858 0
-857 -859 0
-857 -860 0
-857 -861 0
-857 -862 0
-857 -863 0
-857 -864 0
-857 -865 0
-857 -866 0
-857 -867 0
-857 -868 0
-857 -869 0
-857 -870 0
-857 -871 0
-858 -859 0
-858 -860 0
-858 -861 0
-858 -862 0
-858 -863 0
-858 -864 0
-858 -865 0
-858 -866 0
-858 -867 0
-858 -868 0
-858 -869 0
-858 -870 0
-858 -871 0
-859 -860 0
-859 -861 0
-859 -862 0
-859 -863 0
-859 -864 0
-859 -865 0
-859 -866 0
-859 -867 0
-859 -868 0
-859 -869 0
-859 -870 0
-859 -871 0
-860 -861 0
-860 -862 0
-860 -863 0
-860 -864 0
-860 -865 0
-860 -866 0
-860 -867 0
-860 -868 0
-860 -869 0
-860 -870 0
-860 -871 0
-861 -862 0
-861 -863 0
-861 -864 0
-861 -865 0
-861 -866 0
-861 -867 0
-861 -868 0
-861 -869 0
-861 -870 0
-861 -871 0
-862 -863 0
-862 -864 0
-862 -865 0
-862 -866 0
-862 -867 0
-862 -868 0
-862 -869 0
-862 -870 0
-862 -871 0
-863 -864 0
-863 -865 0
-863 -866 0
-863 -867 0
-863 -868 0
-863 -869 0
-863 -870 0
-863 -871 0
-864 -865 0
-864 -866 0
-864 -867 0
-864 -868 0
-864 -869 0
-864 -870 0
-864 -871 0
-865 -866 0
-865 -867 0
-865 -868 0
-865 -869 0
-865 -870 0
-865 -871 0
-866 -867 0
-866 -868 0
-866 -869 0
-866 -870 0
-866 -871 0
-867 -868 0
-867 -869 0
-867 -870 0
-867 -871 0
-868 -869 0
-868 -870 0
-868 -871 0
-869 -870 0
-869 -871 0
-870 -871 0
-797 127 834 0
-797 -127 835 0
-798 127 835 0
-798 -127 836 0
-799 127 836 0
-799 -127 837 0
-800 127 837 0
-800 -127 838 0
-801 127 838 0
-801 -127 839 0
-802 127 839 0
-802 -127 840 0
-803 127 840 0
-803 -127 841 0
-804 127 841 0
-804 -127 842 0
-805 127 842 0
-805 -127 843 0
-806 127 843 0
-806 -127 844 0
-807 127 844 0
-807 -127 845 0
-808 127 845 0
-808 -127 846 0
-809 127 846 0
-809 -127 847 0
-810 127 847 0
-810 -127 848 0
-811 127 848 0
-811 -127 849 0
-812 127 849 0
-812 -127 850 0
-813 127 850 0
-813 -127 851 0
-814 127 851 0
-814 -127 852 0
-815 127 852 0
-815 -127 853 0
-816 127 853 0
-816 -127 854 0
-817 127 854 0
-817 -127 855 0
-818 127 855 0
-818 -127 856 0
-819 127 856 0
-819 -127 857 0
-820 127 857 0
-820 -127 858 0
-821 127 858 0
-821 -127 859 0
-822 127 859 0
-822 -127 860 0
-823 127 860 0
-823 -127 861 0
-824 127 861 0
-824 -127 862 0
-825 127 862 0
-825 -127 863 0
-826 127 863 0
-826 -127 864 0
-827 127 864 0
-827 -127 865 0
-828 127 865 0
-828 -127 866 0
-829 127 866 0
-829 -127 867 0
-830 127 867 0
-830 -127 868 0
-831 127 868 0
-831 -127 869 0
-832 127 869 0
-832 -127 870 0
-833 127 870 0
-833 -127 871 0
872 873 874 875 876 877 878 879 880 881 882 883 884 885 886 887 888 889 890 891 892 893 894 895 896 897 898 899 900 901 902 903 904 905 906 907 908 909 910 0
-872 -873 0
-872 -874 0
-872 -875 0
-872 -876 0
-872 -877 0
-872 -878 0
-872 -879 0
-872 -880 0
-872 -881 0
-872 -882 0
-872 -883 0
-872 -884 0
-872 -885 0
-872 -886 0
-872 -887 0
-872 -888 0
-872 -889 0
-872 -890 0
-872 -891 0
-872 -892 0
-872 -893 0
-872 -894 0
-872 -895 0
-872 -896 0
-872 -897 0
-872 -898 0
-872 -899 0
-872 -900 0
-872 -901 0
-872 -902 0
-872 -903 0
-872 -904 0
-872 -905 0
-872 -906 0
-872 -907 0
-872 -908 0
-872 -909 0
-872 -910 0
-873 -874 0
-873 -875 0
-873 -876 0
-873 -877 0
-873 -878 0
-873 -879 0
-873 -880 0
-873 -881 0
-873 -882 0
-873 -883 0
-873 -884 0
-873 -885 0
-873 -886 0
-873 -887 0
-873 -888 0
-873 -889 0
-873 -890 0
-873 -891 0
-873 -892 0
-873 -893 0
-873 -894 0
-873 -895 0
-873 -896 0
-873 -897 0
-873 -898 0
-873 -899 0
-873 -900 0
-873 -901 0
-873 -902 0
-873 -903 0
-873 -904 0
-873 -905 0
-873 -906 0
-873 -907 0
-873 -908 0
-873 -909 0
-873 -910 0
-874 -875 0
-874 -876 0
-874 -877 0
-874 -878 0
-874 -879 0
-874 -880 0
-874 -881 0
-874 -882 0
-874 -883 0
-874 -884 0
-874 -885 0
-874 -886 0
-874 -887 0
-874 -888 0
-874 -889 0
-874 -890 0
-874 -891 0
-874 -892 0
-874 -893 0
-874 -894 0
-874 -895 0
-874 -896 0
-874 -897 0
-874 -898 0
-874 -899 0
-874 -900 0
-874 -901 0
-874 -902 0
-874 -903 0
-874 -904 0
-874 -905 0
-874 -906 0
-874 -907 0
-874 -908 0
-874 -909 0
-874 -910 0
-875 -876 0
-875 -877 0
-875 -878 0
-875 -879 0
-875 -880 0
-875 -881 0
-875 -882 0
-875 -883 0
-875 -884 0
-875 -885 0
-875 -886 0
-875 -887 0
-875 -888 0
-875 -889 0
-875 -890 0
-875 -891 0
-875 -892 0
-875 -893 0
-875 -894 0
-875 -895 0
-875 -896 0
-875 -897 0
-875 -898 0
-875 -899 0
-875 -900 0
-875 -901 0
-875 -902 0
-875 -903 0
-875 -904 0
-875 -905 0
-875 -906 0
-875 -907 0
-875 -908 0
-875 -909 0
-875 -910 0
-876 -877 0
-876 -878 0
-876 -879 0
-876 -880 0
-876 -881 0
-876 -882 0
-876 -883 0
-876 -884 0
-876 -885 0
-876 -886 0
-876 -887 0
-876 -888 0
-876 -889 0
-876 -890 0
-876 -891 0
-876 -892 0
-876 -893 0
-876 -894 0
-876 -895 0
-876 -896 0
-876 -897 0
-876 -898 0
-876 -899 0
-876 -900 0
-876 -901 0
-876 -902 0
-876 -903 0
-876 -904 0
-876 -905 0
-876 -906 0
-876 -907 0
-876 -908 0
-876 -909 0
-876 -910 0
-877 -878 0
-877 -879 0
-877 -880 0
-877 -881 0
-877 -882 0
-877 -883 0
-877 -884 0
-877 -885 0
-877 -886 0
-877 -887 0
-877 -888 0
-877 -889 0
-877 -890 0
-877 -891 0
-877 -892 0
-877 -893 0
-877 -894 0
-877 -895 0
-877 -896 0
-877 -897 0
-877 -898 0
-877 -899 0
-877 -900 0
-877 -901 0
-877 -902 0
-877 -903 0
-877 -904 0
-877 -905 0
-877 -906 0
-877 -907 0
-877 -908 0
-877 -909 0
-877 -910 0
-878 -879 0
-878 -880 0
-878 -881 0
-878 -882 0
-878 -883 0
-878 -884 0
-878 -885 0
-878 -886 0
-878 -887 0
-878 -888 0
-878 -889 0
-878 -890 0
-878 -891 0
-878 -892 0
-878 -893 0
-878 -894 0
-878 -895 0
-878 -896 0
-878 -897 0
-878 -898 0
-878 -899 0
-878 -900 0
-878 -901 0
-878 -902 0
-878 -903 0
-878 -904 0
-878 -905 0
-878 -906 0
-878 -907 0
-878 -908 0
-878 -909 0
-878 -910 0
-879 -880 0
-879 -881 0
-879 -882 0
-879 -883 0
-879 -884 0
-879 -885 0
-879 -886 0
-879 -887 0
-879 -888 0
-879 -889 0
-879 -890 0
-879 -891 0
-879 -892 0
-879 -893 0
-879 -894 0
-879 -895 0
-879 -896 0
-879 -897 0
-879 -898 0
-879 -899 0
-879 -900 0
-879 -901 0
-879 -902 0
-879 -903 0
-879 -904 0
-879 -905 0
-879 -906 0
-879 -907 0
-879 -908 0
-879 -909 0
-879 -910 0
-880 -881 0
-880 -882 0
-880 -883 0
-880 -884 0
-880 -885 0
-880 -886 0
-880 -887 0
-880 -888 0
-880 -889 0
-880 -890 0
-880 -891 0
-880 -892 0
-880 -893 0
-880 -894 0
-880 -895 0
-880 -896 0
-880 -897 0
-880 -898 0
-880 -899 0
-880 -900 0
-880 -901 0
-880 -902 0
-880 -903 0
-880 -904 0
-880 -905 0
-880 -906 0
-880 -907 0
-880 -908 0
-880 -909 0
-880 -910 0
-881 -882 0
-881 -883 0
-881 -884 0
-881 -885 0
-881 -886 0
-881 -887 0
-881 -888 0
-881 -889 0
-881 -890 0
-881 -891 0
-881 -892 0
-881 -893 0
-881 -894 0
-881 -895 0
-881 -896 0
-881 -897 0
-881 -898 0
-881 -899 0
-881 -900 0
-881 -901 0
-881 -902 0
-881 -903 0
-881 -904 0
-881 -905 0
-881 -906 0
-881 -907 0
-881 -908 0
-881 -909 0
-881 -910 0
-882 -883 0
-882 -884 0
-882 -885 0
-882 -886 0
-882 -887 0
-882 -888 0
-882 -889 0
-882 -890 0
-882 -891 0
-882 -892 0
-882 -893 0
-882 -894 0
-882 -895 0
-882 -896 0
-882 -897 0
-882 -898 0
-882 -899 0
-882 -900 0
-882 -901 0
-882 -902 0
-882 -903 0
-882 -904 0
-882 -905 0
-882 -906 0
-882 -907 0
-882 -908 0
-882 -909 0
-882 -910 0
-883 -884 0
-883 -885 0
-883 -886 0
-883 -887 0
-883 -888 0
-883 -889 0
-883 -890 0
-883 -891 0
-883 -892 0
-883 -893 0
-883 -894 0
-883 -895 0
-883 -896 0
-883 -897 0
-883 -898 0
-883 -899 0
-883 -900 0
-883 -901 0
-883 -902 0
-883 -903 0
-883 -904 0
-883 -905 0
-883 -906 0
-883 -907 0
-883 -908 0
-883 -909 0
-883 -910 0
-884 -885 0
-884 -886 0
-884 -887 0
-884 -888 0
-884 -889 0
-884 -890 0
-884 -891 0
-884 -892 0
-884 -893 0
-884 -894 0
-884 -895 0
-884 -896 0
-884 -897 0
-884 -898 0
-884 -899 0
-884 -900 0
-884 -901 0
-884 -902 0
-884 -903 0
-884 -904 0
-884 -905 0
-884 -906 0
-884 -907 0
-884 -908 0
-884 -909 0
-884 -910 0
-885 -886 0
-885 -887 0
-885 -888 0
-885 -889 0
-885 -890 0
-885 -891 0
-885 -892 0
-885 -893 0
-885 -894 0
-885 -895 0
-885 -896 0
-885 -897 0
-885 -898 0
-885 -899 0
-885 -900 0
-885 -901 0
-885 -902 0
-885 -903 0
-885 -904 0
-885 -905 0
-885 -906 0
-885 -907 0
-885 -908 0
-885 -909 0
-885 -910 0
-886 -887 0
-886 -888 0
-886 -889 0
-886 -890 0
-886 -891 0
-886 -892 0
-886 -893 0
-886 -894 0
-886 -895 0
-886 -896 0
-886 -897 0
-886 -898 0
-886 -899 0
-886 -900 0
-886 -901 0
-886 -902 0
-886 -903 0
-886 -904 0
-886 -905 0
-886 -906 0
-886 -907 0
-886 -908 0
-886 -909 0
-886 -910 0
-887 -888 0
-887 -889 0
-887 -890 0
-887 -891 0
-887 -892 0
-887 -893 0
-887 -894 0
-887 -895 0
-887 -896 0
-887 -897 0
-887 -898 0
-887 -899 0
-887 -900 0
-887 -901 0
-887 -902 0
-887 -903 0
-887 -904 0
-887 -905 0
-887 -906 0
-887 -907 0
-887 -908 0
-887 -909 0
-887 -910 0
-888 -889 0
-888 -890 0
-888 -891 0
-888 -892 0
-888 -893 0
-888 -894 0
-888 -895 0
-888 -896 0
-888 -897 0
-888 -898 0
-888 -899 0
-888 -900 0
-888 -901 0
-888 -902 0
-888 -903 0
-888 -904 0
-888 -905 0
-888 -906 0
-888 -907 0
-888 -908 0
-888 -909 0
-888 -910 0
-889 -890 0
-889 -891 0
-889 -892 0
-889 -893 0
-889 -894 0
-889 -895 0
-889 -896 0
-889 -897 0
-889 -898 0
-889 -899 0
-889 -900 0
-889 -901 0
-889 -902 0
-889 -903 0
-889 -904 0
-889 -905 0
-889 -906 0
-889 -907 0
-889 -908 0
-889 -909 0
-889 -910 0
-890 -891 0
-890 -892 0
-890 -893 0
-890 -894 0
-890 -895 0
-890 -896 0
-890 -897 0
-890 -898 0
-890 -899 0
-890 -900 0
-890 -901 0
-890 -902 0
-890 -903 0
-890 -904 0
-890 -905 0
-890 -906 0
-890 -907 0
-890 -908 0
-890 -909 0
-890 -910 0
-891 -892 0
-891 -893 0
-891 -894 0
-891 -895 0
-891 -896 0
-891 -897 0
-891 -898 0
-891 -899 0
-891 -900 0
-891 -901 0
-891 -902 0
-891 -903 0
-891 -904 0
-891 -905 0
-891 -906 0
-891 -907 0
-891 -908 0
-891 -909 0
-891 -910 0
-892 -893 0
-892 -894 0
-892 -895 0
-892 -896 0
-892 -897 0
-892 -898 0
-892 -899 0
-892 -900 0
-892 -901 0
-892 -902 0
-892 -903 0
-892 -904 0
-892 -905 0
-892 -906 0
-892 -907 0
-892 -908 0
-892 -909 0
-892 -910 0
-893 -894 0
-893 -895 0
-893 -896 0
-893 -897 0
-893 -898 0
-893 -899 0
-893 -900 0
-893 -901 0
-893 -902 0
-893 -903 0
-893 -904 0
-893 -905 0
-893 -906 0
-893 -907 0
-893 -908 0
-893 -909 0
-893 -910 0
-894 -895 0
-894 -896 0
-894 -897 0
-894 -898 0
-894 -899 0
-894 -900 0
-894 -901 0
-894 -902 0
-894 -903 0
-894 -904 0
-894 -905 0
-894 -906 0
-894 -907 0
-894 -908 0
-894 -909 0
-894 -910 0
-895 -896 0
-895 -897 0
-895 -898 0
-895 -899 0
-895 -900 0
-895 -901 0
-895 -902 0
-895 -903 0
-895 -904 0
-895 -905 0
-895 -906 0
-895 -907 0
-895 -908 0
-895 -909 0
-895 -910 0
-896 -897 0
-896 -898 0
-896 -899 0
-896 -900 0
-896 -901 0
-896 -902 0
-896 -903 0
-896 -904 0
-896 -905 0
-896 -906 0
-896 -907 0
-896 -908 0
-896 -909 0
-896 -910 0
-897 -898 0
-897 -899 0
-897 -900 0
-897 -901 0
-897 -902 0
-897 -903 0
-897 -904 0
-897 -905 0
-897 -906 0
-897 -907 0
-897 -908 0
-897 -909 0
-897 -910 0
-898 -899 0
-898 -900 0
-898 -901 0
-898 -902 0
-898 -903 0
-898 -904 0
-898 -905 0
-898 -906 0
-898 -907 0
-898 -908 0
-898 -909 0
-898 -910 0
-899 -900 0
-899 -901 0
-899 -902 0
-899 -903 0
-899 -904 0
-899 -905 0
-899 -906 0
-899 -907 0
-899 -908 0
-899 -909 0
-899 -910 0
-900 -901 0
-900 -902 0
-900 -903 0
-900 -904 0
-900 -905 0
-900 -906 0
-900 -907 0
-900 -908 0
-900 -909 0
-900 -910 0
-901 -902 0
-901 -903 0
-901 -904 0
-901 -905 0
-901 -906 0
-901 -907 0
-901 -908 0
-901 -909 0
-901 -910 0
-902 -903 0
-902 -904 0
-902 -905 0
-902 -906 0
-902 -907 0
-902 -908 0
-902 -909 0
-902 -910 0
-903 -904 0
-903 -905 0
-903 -906 0
-903 -907 0
-903 -908 0
-903 -909 0
-903 -910 0
-904 -905 0
-904 -906 0
-904 -907 0
-904 -908 0
-904 -909 0
-904 -910 0
-905 -906 0
-905 -907 0
-905 -908 0
-905 -909 0
-905 -910 0
-906 -907 0
-906 -908 0
-906 -909 0
-906 -910 0
-907 -908 0
-907 -909 0
-907 -910 0
-908 -909 0
-908 -910 0
-909 -910 0
-834 128 872 0
-834 -128 873 0
-835 128 873 0
-835 -128 874 0
-836 128 874 0
-836 -128 875 0
-837 128 875 0
-837 -128 876 0
-838 128 876 0
-838 -128 877 0
-839 128 877 0
-839 -128 878 0
-840 128 878 0
-840 -128 879 0
-841 128 879 0
-841 -128 880 0
-842 128 880 0
-842 -128 881 0
-843 128 881 0
-843 -128 882 0
-844 128 882 0
-844 -128 883 0
-845 128 883 0
-845 -128 884 0
-846 128 884 0
-846 -128 885 0
-847 128 885 0
-847 -128 886 0
-848 128 886 0
-848 -128 887 0
-849 128 887 0
-849 -128 888 0
-850 128 888 0
-850 -128 889 0
-851 128 889 0
-851 -128 890 0
-852 128 890 0
-852 -128 891 0
-853 128 891 0
-853 -128 892 0
-854 128 892 0
-854 -128 893 0
-855 128 893 0
-855 -128 894 0
-856 128 894 0
-856 -128 895 0
-857 128 895 0
-857 -128 896 0
-858 128 896 0
-858 -128 897 0
-859 128 897 0
-859 -128 898 0
-860 128 898 0
-860 -128 899 0
-861 128 899 0
-861 -128 900 0
-862 128 900 0
-862 -128 901 0
-863 128 901 0
-863 -128 902 0
-864 128 902 0
-864 -128 903 0
-865 128 903 0
-865 -128 904 0
-866 128 904 0
-866 -128 905 0
-867 128 905 0
-867 -128 906 0
-868 128 906 0
-868 -128 907 0
-869 128 907 0
-869 -128 908 0
-870 128 908 0
-870 -128 909 0
-871 128 909 0
-871 -128 910 0
911 912 913 914 915 916 917 918 919 920 921 922 923 924 925 926 927 928 929 930 931 932 933 934 935 936 937 938 939 940 941 942 943 944 945 946 947 948 949 950 0
-911 -912 0
-911 -913 0
-911 -914 0
-911 -915 0
-911 -916 0
-911 -917 0
-911 -918 0
-911 -919 0
-911 -920 0
-911 -921 0
-911 -922 0
-911 -923 0
-911 -924 0
-911 -925 0
-911 -926 0
-911 -927 0
-911 -928 0
-911 -929 0
-911 -930 0
-911 -931 0
-911 -932 0
-911 -933 0
-911 -934 0
-911 -935 0
-911 -936 0
-911 -937 0
-911 -938 0
-911 -939 0
-911 -940 0
-911 -941 0
-911 -942 0
-911 -943 0
-911 -944 0
-911 -945 0
-911 -946 0
-911 -947 0
-911 -948 0
-911 -949 0
-911 -950 0
-912 -913 0
-912 -914 0
-912 -915 0
-912 -916 0
-912 -917 0
-912 -918 0
-912 -919 0
-912 -920 0
-912 -921 0
-912 -922 0
-912 -923 0
-912 -924 0
-912 -925 0
-912 -926 0
-912 -927 0
-912 -928 0
-912 -929 0
-912 -930 0
-912 -931 0
-912 -932 0
-912 -933 0
-912 -934 0
-912 -935 0
-912 -936 0
-912 -937 0
-912 -938 0
-912 -939 0
-912 -940 0
-912 -941 0
-912 -942 0
-912 -943 0
-912 -944 0
-912 -945 0
-912 -946 0
-912 -947 0
-912 -948 0
-912 -949 0
-912 -950 0
-913 -914 0
-913 -915 0
-913 -916 0
-913 -917 0
-913 -918 0
-913 -919 0
-913 -920 0
-913 -921 0
-913 -922 0
-913 -923 0
-913 -924 0
-913 -925 0
-913 -926 0
-913 -927 0
-913 -928 0
-913 -929 0
-913 -930 0
-913 -931 0
-913 -932 0
-913 -933 0
-913 -934 0
-913 -935 0
-913 -936 0
-913 -937 0
-913 -938 0
-913 -939 0
-913 -940 0
-913 -941 0
-913 -942 0
-913 -943 0
-913 -944 0
-913 -945 0
-913 -946 0
-913 -947 0
-913 -948 0
-913 -949 0
-913 -950 0
-914 -915 0
-914 -916 0
-914 -917 0
-914 -918 0
-914 -919 0
-914 -920 0
-914 -921 0
-914 -922 0
-914 -923 0
-914 -924 0
-914 -925 0
-914 -926 0
-914 -927 0
-914 -928 0
-914 -929 0
-914 -930 0
-914 -931 0
-914 -932 0
-914 -933 0
-914 -934 0
-914 -935 0
-914 -936 0
-914 -937 0
-914 -938 0
-914 -939 0
-914 -940 0
-914 -941 0
-914 -942 0
-914 -943 0
-914 -944 0
-914 -945 0
-914 -946 0
-914 -947 0
-914 -948 0
-914 -949 0
-914 -950 0
-915 -916 0
-915 -917 0
-915 -918 0
-915 -919 0
-915 -920 0
-915 -921 0
-915 -922 0
-915 -923 0
-915 -924 0
-915 -925 0
-915 -926 0
-915 -927 0
-915 -928 0
-915 -929 0
-915 -930 0
-915 -931 0
-915 -932 0
-915 -933 0
-915 -934 0
-915 -935 0
-915 -936 0
-915 -937 0
-915 -938 0
-915 -939 0
-915 -940 0
-915 -941 0
-915 -942 0
-915 -943 0
-915 -944 0
-915 -945 0
-915 -946 0
-915 -947 0
-915 -948 0
-915 -949 0
-915 -950 0
-916 -917 0
-916 -918 0
-916 -919 0
-916 -920 0
-916 -921 0
-916 -922 0
-916 -923 0
-916 -924 0
-916 -925 0
-916 -926 0
-916 -927 0
-916 -928 0
-916 -929 0
-916 -930 0
-916 -931 0
-916 -932 0
-916 -933 0
-916 -934 0
-916 -935 0
-916 -936 0
-916 -937 0
-916 -938 0
-916 -939 0
-916 -940 0
-916 -941 0
-916 -942 0
-916 -943 0
-916 -944 0
-916 -945 0
-916 -946 0
-916 -947 0
-916 -948 0
-916 -949 0
-916 -950 0
-917 -918 0
-917 -919 0
-917 -920 0
-917 -921 0
-917 -922 0
-917 -923 0
-917 -924 0
-917 -925 0
-917 -926 0
-917 -927 0
-917 -928 0
-917 -929 0
-917 -930 0
-917 -931 0
-917 -932 0
-917 -933 0
-917 -934 0
-917 -935 0
-917 -936 0
-917 -937 0
-917 -938 0
-917 -939 0
-917 -940 0
-917 -941 0
-917 -942 0
-917 -943 0
-917 -944 0
-917 -945 0
-917 -946 0
-917 -947 0
-917 -948 0
-917 -949 0
-917 -950 0
-918 -919 0
-918 -920 0
-918 -921 0
-918 -922 0
-918 -923 0
-918 -924 0
-918 -925 0
-918 -926 0
-918 -927 0
-918 -928 0
-918 -929 0
-918 -930 0
-918 -931 0
-918 -932 0
-918 -933 0
-918 -934 0
-918 -935 0
-918 -936 0
-918 -937 0
-918 -938 0
-918 -939 0
-918 -940 0
-918 -941 0
-918 -942 0
-918 -943 0
-918 -944 0
-918 -945 0
-918 -946 0
-918 -947 0
-918 -948 0
-918 -949 0
-918 -950 0
-919 -920 0
-919 -921 0
-919 -922 0
-919 -923 0
-919 -924 0
-919 -925 0
-919 -926 0
-919 -927 0
-919 -928 0
-919 -929 0
-919 -930 0
-919 -931 0
-919 -932 0
-919 -933 0
-919 -934 0
-919 -935 0
-919 -936 0
-919 -937 0
-919 -938 0
-919 -939 0
-919 -940 0
-919 -941 0
-919 -942 0
-919 -943 0
-919 -944 0
-919 -945 0
-919 -946 0
-919 -947 0
-919 -948 0
-919 -949 0
-919 -950 0
-920 -921 0
-920 -922 0
-920 -923 0
-920 -924 0
-920 -925 0
-920 -926 0
-920 -927 0
-920 -928 0
-920 -929 0
-920 -930 0
-920 -931 0
-920 -932 0
-920 -933 0
-920 -934 0
-920 -935 0
-920 -936 0
-920 -937 0
-920 -938 0
-920 -939 0
-920 -940 0
-920 -941 0
-920 -942 0
-920 -943 0
-920 -944 0
-920 -945 0
-920 -946 0
-920 -947 0
-920 -948 0
-920 -949 0
-920 -950 0
-921 -922 0
-921 -923 0
-921 -924 0
-921 -925 0
-921 -926 0
-921 -927 0
-921 -928 0
-921 -929 0
-921 -930 0
-921 -931 0
-921 -932 0
-921 -933 0
-921 -934 0
-921 -935 0
-921 -936 0
-921 -937 0
-921 -938 0
-921 -939 0
-921 -940 0
-921 -941 0
-921 -942 0
-921 -943 0
-921 -944 0
-921 -945 0
-921 -946 0
-921 -947 0
-921 -948 0
-921 -949 0
-921 -950 0
-922 -923 0
-922 -924 0
-922 -925 0
-922 -926 0
-922 -927 0
-922 -928 0
-922 -929 0
-922 -930 0
-922 -931 0
-922 -932 0
-922 -933 0
-922 -934 0
-922 -935 0
-922 -936 0
-922 -937 0
-922 -938 0
-922 -939 0
-922 -940 0
-922 -941 0
-922 -942 0
-922 -943 0
-922 -944 0
-922 -945 0
-922 -946 0
-922 -947 0
-922 -948 0
-922 -949 0
-922 -950 0
-923 -924 0
-923 -925 0
-923 -926 0
-923 -927 0
-923 -928 0
-923 -929 0
-923 -930 0
-923 -931 0
-923 -932 0
-923 -933 0
-923 -934 0
-923 -935 0
-923 -936 0
-923 -937 0
-923 -938 0
-923 -939 0
-923 -940 0
-923 -941 0
-923 -942 0
-923 -943 0
-923 -944 0
-923 -945 0
-923 -946 0
-923 -947 0
-923 -948 0
-923 -949 0
-923 -950 0
-924 -925 0
-924 -926 0
-924 -927 0
-924 -928 0
-924 -929 0
-924 -930 0
-924 -931 0
-924 -932 0
-924 -933 0
-924 -934 0
-924 -935 0
-924 -936 0
-924 -937 0
-924 -938 0
-924 -939 0
-924 -940 0
-924 -941 0
-924 -942 0
-924 -943 0
-924 -944 0
-924 -945 0
-924 -946 0
-924 -947 0
-924 -948 0
-924 -949 0
-924 -950 0
-925 -926 0
-925 -927 0
-925 -928 0
-925 -929 0
-925 -930 0
-925 -931 0
-925 -932 0
-925 -933 0
-925 -934 0
-925 -935 0
-925 -936 0
-925 -937 0
-925 -938 0
-925 -939 0
-925 -940 0
-925 -941 0
-925 -942 0
-925 -943 0
-925 -944 0
-925 -945 0
-925 -946 0
-925 -947 0
-925 -948 0
-925 -949 0
-925 -950 0
-926 -927 0
-926 -928 0
-926 -929 0
-926 -930 0
-926 -931 0
-926 -932 0
-926 -933 0
-926 -934 0
-926 -935 0
-926 -936 0
-926 -937 0
-926 -938 0
-926 -939 0
-926 -940 0
-926 -941 0
-926 -942 0
-926 -943 0
-926 -944 0
-926 -945 0
-926 -946 0
-926 -947 0
-926 -948 0
-926 -949 0
-926 -950 0
-927 -928 0
-927 -929 0
-927 -930 0
-927 -931 0
-927 -932 0
-927 -933 0
-927 -934 0
-927 -935 0
-927 -936 0
-927 -937 0
-927 -938 0
-927 -939 0
-927 -940 0
-927 -941 0
-927 -942 0
-927 -943 0
-927 -944 0
-927 -945 0
-927 -946 0
-927 -947 0
-927 -948 0
-927 -949 0
-927 -950 0
-928 -929 0
-928 -930 0
-928 -931 0
-928 -932 0
-928 -933 0
-928 -934 0
-928 -935 0
-928 -936 0
-928 -937 0
-928 -938 0
-928 -939 0
-928 -940 0
-928 -941 0
-928 -942 0
-928 -943 0
-928 -944 0
-928 -945 0
-928 -946 0
-928 -947 0
-928 -948 0
-928 -949 0
-928 -950 0
-929 -930 0
-929 -931 0
-929 -932 0
-929 -933 0
-929 -934 0
-929 -935 0
-929 -936 0
-929 -937 0
-929 -938 0
-929 -939 0
-929 -940 0
-929 -941 0
-929 -942 0
-929 -943 0
-929 -944 0
-929 -945 0
-929 -946 0
-929 -947 0
-929 -948 0
-929 -949 0
-929 -950 0
-930 -931 0
-930 -932 0
-930 -933 0
-930 -934 0
-930 -935 0
-930 -936 0
-930 -937 0
-930 -938 0
-930 -939 0
-930 -940 0
-930 -941 0
-930 -942 0
-930 -943 0
-930 -944 0
-930 -945 0
-930 -946 0
-930 -947 0
-930 -948 0
-930 -949 0
-930 -950 0
-931 -932 0
-931 -933 0
-931 -934 0
-931 -935 0
-931 -936 0
-931 -937 0
-931 -938 0
-931 -939 0
-931 -940 0
-931 -941 0
-931 -942 0
-931 -943 0
-931 -944 0
-931 -945 0
-931 -946 0
-931 -947 0
-931 -948 0
-931 -949 0
-931 -950 0
-932 -933 0
-932 -934 0
-932 -935 0
-932 -936 0
-932 -937 0
-932 -938 0
-932 -939 0
-932 -940 0
-932 -941 0
-932 -942 0
-932 -943 0
-932 -944 0
-932 -945 0
-932 -946 0
-932 -947 0
-932 -948 0
-932 -949 0
-932 -950 0
-933 -934 0
-933 -935 0
-933 -936 0
-933 -937 0
-933 -938 0
-933 -939 0
-933 -940 0
-933 -941 0
-933 -942 0
-933 -943 0
-933 -944 0
-933 -945 0
-933 -946 0
-933 -947 0
-933 -948 0
-933 -949 0
-933 -950 0
-934 -935 0
-934 -936 0
-934 -937 0
-934 -938 0
-934 -939 0
-934 -940 0
-934 -941 0
-934 -942 0
-934 -943 0
-934 -944 0
-934 -945 0
-934 -946 0
-934 -947 0
-934 -948 0
-934 -949 0
-934 -950 0
-935 -936 0
-935 -937 0
-935 -938 0
-935 -939 0
-935 -940 0
-935 -941 0
-935 -942 0
-935 -943 0
-935 -944 0
-935 -945 0
-935 -946 0
-935 -947 0
-935 -948 0
-935 -949 0
-935 -950 0
-936 -937 0
-936 -938 0
-936 -939 0
-936 -940 0
-936 -941 0
-936 -942 0
-936 -943 0
-936 -944 0
-936 -945 0
-936 -946 0
-936 -947 0
-936 -948 0
-936 -949 0
-936 -950 0
-937 -938 0
-937 -939 0
-937 -940 0
-937 -941 0
-937 -942 0
-937 -943 0
-937 -944 0
-937 -945 0
-937 -946 0
-937 -947 0
-937 -948 0
-937 -949 0
-937 -950 0
-938 -939 0
-938 -940 0
-938 -941 0
-938 -942 0
-938 -943 0
-938 -944 0
-938 -945 0
-938 -946 0
-938 -947 0
-938 -948 0
-938 -949 0
-938 -950 0
-939 -940 0
-939 -941 0
-939 -942 0
-939 -943 0
-939 -944 0
-939 -945 0
-939 -946 0
-939 -947 0
-939 -948 0
-939 -949 0
-939 -950 0
-940 -941 0
-940 -942 0
-940 -943 0
-940 -944 0
-940 -945 0
-940 -946 0
-940 -947 0
-940 -948 0
-940 -949 0
-940 -950 0
-941 -942 0
-941 -943 0
-941 -944 0
-941 -945 0
-941 -946 0
-941 -947 0
-941 -948 0
-941 -949 0
-941 -950 0
-942 -943 0
-942 -944 0
-942 -945 0
-942 -946 0
-942 -947 0
-942 -948 0
-942 -949 0
-942 -950 0
-943 -944 0
-943 -945 0
-943 -946 0
-943 -947 0
-943 -948 0
-943 -949 0
-943 -950 0
-944 -945 0
-944 -946 0
-944 -947 0
-944 -948 0
-944 -949 0
-944 -950 0
-945 -946 0
-945 -947 0
-945 -948 0
-945 -949 0
-945 -950 0
-946 -947 0
-946 -948 0
-946 -949 0
-946 -950 0
-947 -948 0
-947 -949 0
-947 -950 0
-948 -949 0
-948 -950 0
-949 -950 0
-872 129 911 0
-872 -129 912 0
-873 129 912 0
-873 -129 913 0
-874 129 913 0
-874 -129 914 0
-875 129 914 0
-875 -129 915 0
-876 129 915 0
-876 -129 916 0
-877 129 916 0
-877 -129 917 0
-878 129 917 0
-878 -129 918 0
-879 129 918 0
-879 -129 919 0
-880 129 919 0
-880 -129 920 0
-881 129 920 0
-881 -129 921 0
-882 129 921 0
-882 -129 922 0
-883 129 922 0
-883 -129 923 0
-884 129 923 0
-884 -129 924 0
-885 129 924 0
-885 -129 925 0
-886 129 925 0
-886 -129 926 0
-887 129 926 0
-887 -129 927 0
-888 129 927 0
-888 -129 928 0
-889 129 928 0
-889 -129 929 0
-890 129 929 0
-890 -129 930 0
-891 129 930 0
-891 -129 931 0
-892 129 931 0
-892 -129 932 0
-893 129 932 0
-893 -129 933 0
-894 129 933 0
-894 -129 934 0
-895 129 934 0
-895 -129 935 0
-896 129 935 0
-896 -129 936 0
-897 129 936 0
-897 -129 937 0
-898 129 937 0
-898 -129 938 0
-899 129 938 0
-899 -129 939 0
-900 129 939 0
-900 -129 940 0
-901 129 940 0
-901 -129 941 0
-902 129 941 0
-902 -129 942 0
-903 129 942 0
-903 -129 943 0
-904 129 943 0
-904 -129 944 0
-905 129 944 0
-905 -129 945 0
-906 129 945 0
-906 -129 946 0
-907 129 946 0
-907 -129 947 0
-908 129 947 0
-908 -129 948 0
-909 129 948 0
-909 -129 949 0
-910 129 949 0
-910 -129 950 0
951 952 953 954 955 956 957 958 959 960 961 962 963 964 965 966 967 968 969 970 971 972 973 974 975 976 977 978 979 980 981 982 983 984 985 986 987 988 989 990 991 0
-951 -952 0
-951 -953 0
-951 -954 0
-951 -955 0
-951 -956 0
-951 -957 0
-951 -958 0
-951 -959 0
-951 -960 0
-951 -961 0
-951 -962 0
-951 -963 0
-951 -964 0
-951 -965 0
-951 -966 0
-951 -967 0
-951 -968 0
-951 -969 0
-951 -970 0
-951 -971 0
-951 -972 0
-951 -973 0
-951 -974 0
-951 -975 0
-951 -976 0
-951 -977 0
-951 -978 0
-951 -979 0
-951 -980 0
-951 -981 0
-951 -982 0
-951 -983 0
-951 -984 0
-951 -985 0
-951 -986 0
-951 -987 0
-951 -988 0
-951 -989 0
-951 -990 0
-951 -991 0
-952 -953 0
-952 -954 0
-952 -955 0
-952 -956 0
-952 -957 0
-952 -958 0
-952 -959 0
-952 -960 0
-952 -961 0
-952 -962 0
-952 -963 0
-952 -964 0
-952 -965 0
-952 -966 0
-952 -967 0
-952 -968 0
-952 -969 0
-952 -970 0
-952 -971 0
-952 -972 0
-952 -973 0
-952 -974 0
-952 -975 0
-952 -976 0
-952 -977 0
-952 -978 0
-952 -979 0
-952 -980 0
-952 -981 0
-952 -982 0
-952 -983 0
-952 -984 0
-952 -985 0
-952 -986 0
-952 -987 0
-952 -988 0
-952 -989 0
-952 -990 0
-952 -991 0
-953 -954 0
-953 -955 0
-953 -956 0
-953 -957 0
-953 -958 0
-953 -959 0
-953 -960 0
-953 -961 0
-953 -962 0
-953 -963 0
-953 -964 0
-953 -965 0
-953 -966 0
-953 -967 0
-953 -968 0
-953 -969 0
-953 -970 0
-953 -971 0
-953 -972 0
-953 -973 0
-953 -974 0
-953 -975 0
-953 -976 0
-953 -977 0
-953 -978 0
-953 -979 0
-953 -980 0
-953 -981 0
-953 -982 0
-953 -983 0
-953 -984 0
-953 -985 0
-953 -986 0
-953 -987 0
-953 -988 0
-953 -989 0
-953 -990 0
-953 -991 0
-954 -955 0
-954 -956 0
-954 -957 0
-954 -958 0
-954 -959 0
-954 -960 0
-954 -961 0
-954 -962 0
-954 -963 0
-954 -964 0
-954 -965 0
-954 -966 0
-954 -967 0
-954 -968 0
-954 -969 0
-954 -970 0
-954 -971 0
-954 -972 0
-954 -973 0
-954 -974 0
-954 -975 0
-954 -976 0
-954 -977 0
-954 -978 0
-954 -979 0
-954 -980 0
-954 -981 0
-954 -982 0
-954 -983 0
-954 -984 0
-954 -985 0
-954 -986 0
-954 -987 0
-954 -988 0
-954 -989 0
-954 -990 0
-954 -991 0
-955 -956 0
-955 -957 0
-955 -958 0
-955 -959 0
-955 -960 0
-955 -961 0
-955 -962 0
-955 -963 0
-955 -964 0
-955 -965 0
-955 -966 0
-955 -967 0
-955 -968 0
-955 -969 0
-955 -970 0
-955 -971 0
-955 -972 0
-955 -973 0
-955 -974 0
-955 -975 0
-955 -976 0
-955 -977 0
-955 -978 0
-955 -979 0
-955 -980 0
-955 -981 0
-955 -982 0
-955 -983 0
-955 -984 0
-955 -985 0
-955 -986 0
-955 -987 0
-955 -988 0
-955 -989 0
-955 -990 0
-955 -991 0
-956 -957 0
-956 -958 0
-956 -959 0
-956 -960 0
-956 -961 0
-956 -962 0
-956 -963 0
-956 -964 0
-956 -965 0
-956 -966 0
-956 -967 0
-956 -968 0
-956 -969 0
-956 -970 0
-956 -971 0
-956 -972 0
-956 -973 0
-956 -974 0
-956 -975 0
-956 -976 0
-956 -977 0
-956 -978 0
-956 -979 0
-956 -980 0
-956 -981 0
-956 -982 0
-956 -983 0
-956 -984 0
-956 -985 0
-956 -986 0
-956 -987 0
-956 -988 0
-956 -989 0
-956 -990 0
-956 -991 0
-957 -958 0
-957 -959 0
-957 -960 0
-957 -961 0
-957 -962 0
-957 -963 0
-957 -964 0
-957 -965 0
-957 -966 0
-957 -967 0
-957 -968 0
-957 -969 0
-957 -970 0
-957 -971 0
-957 -972 0
-957 -973 0
-957 -974 0
-957 -975 0
-957 -976 0
-957 -977 0
-957 -978 0
-957 -979 0
-957 -980 0
-957 -981 0
-957 -982 0
-957 -983 0
-957 -984 0
-957 -985 0
-957 -986 0
-957 -987 0
-957 -988 0
-957 -989 0
-957 -990 0
-957 -991 0
-958 -959 0
-958 -960 0
-958 -961 0
-958 -962 0
-958 -963 0
-958 -964 0
-958 -965 0
-958 -966 0
-958 -967 0
-958 -968 0
-958 -969 0
-958 -970 0
-958 -971 0
-958 -972 0
-958 -973 0
-958 -974 0
-958 -975 0
-958 -976 0
-958 -977 0
-958 -978 0
-958 -979 0
-958 -980 0
-958 -981 0
-958 -982 0
-958 -983 0
-958 -984 0
-958 -985 0
-958 -986 0
-958 -987 0
-958 -988 0
-958 -989 0
-958 -990 0
-958 -991 0
-959 -960 0
-959 -961 0
-959 -962 0
-959 -963 0
-959 -964 0
-959 -965 0
-959 -966 0
-959 -967 0
-959 -968 0
-959 -969 0
-959 -970 0
-959 -971 0
-959 -972 0
-959 -973 0
-959 -974 0
-959 -975 0
-959 -976 0
-959 -977 0
-959 -978 0
-959 -979 0
-959 -980 0
-959 -981 0
-959 -982 0
-959 -983 0
-959 -984 0
-959 -985 0
-959 -986 0
-959 -987 0
-959 -988 0
-959 -989 0
-959 -990 0
-959 -991 0
-960 -961 0
-960 -962 0
-960 -963 0
-960 -964 0
-960 -965 0
-960 -966 0
-960 -967 0
-960 -968 0
-960 -969 0
-960 -970 0
-960 -971 0
-960 -972 0
-960 -973 0
-960 -974 0
-960 -975 0
-960 -976 0
-960 -977 0
-960 -978 0
-960 -979 0
-960 -980 0
-960 -981 0
-960 -982 0
-960 -983 0
-960 -984 0
-960 -985 0
-960 -986 0
-960 -987 0
-960 -988 0
-960 -989 0
-960 -990 0
-960 -991 0
-961 -962 0
-961 -963 0
-961 -964 0
-961 -965 0
-961 -966 0
-961 -967 0
-961 -968 0
-961 -969 0
-961 -970 0
-961 -971 0
-961 -972 0
-961 -973 0
-961 -974 0
-961 -975 0
-961 -976 0
-961 -977 0
-961 -978 0
-961 -979 0
-961 -980 0
-961 -981 0
-961 -982 0
-961 -983 0
-961 -984 0
-961 -985 0
-961 -986 0
-961 -987 0
-961 -988 0
-961 -989 0
-961 -990 0
-961 -991 0
-962 -963 0
-962 -964 0
-962 -965 0
-962 -966 0
-962 -967 0
-962 -968 0
-962 -969 0
-962 -970 0
-962 -971 0
-962 -972 0
-962 -973 0
-962 -974 0
-962 -975 0
-962 -976 0
-962 -977 0
-962 -978 0
-962 -979 0
-962 -980 0
-962 -981 0
-962 -982 0
-962 -983 0
-962 -984 0
-962 -985 0
-962 -986 0
-962 -987 0
-962 -988 0
-962 -989 0
-962 -990 0
-962 -991 0
-963 -964 0
-963 -965 0
-963 -966 0
-963 -967 0
-963 -968 0
-963 -969 0
-963 -970 0
-963 -971 0
-963 -972 0
-963 -973 0
-963 -974 0
-963 -975 0
-963 -976 0
-963 -977 0
-963 -978 0
-963 -979 0
-963 -980 0
-963 -981 0
-963 -982 0
-963 -983 0
-963 -984 0
-963 -985 0
-963 -986 0
-963 -987 0
-963 -988 0
-963 -989 0
-963 -990 0
-963 -991 0
-964 -965 0
-964 -966 0
-964 -967 0
-964 -968 0
-964 -969 0
-964 -970 0
-964 -971 0
-964 -972 0
-964 -973 0
-964 -974 0
-964 -975 0
-964 -976 0
-964 -977 0
-964 -978 0
-964 -979 0
-964 -980 0
-964 -981 0
-964 -982 0
-964 -983 0
-964 -984 0
-964 -985 0
-964 -986 0
-964 -987 0
-964 -988 0
-964 -989 0
-964 -990 0
-964 -991 0
-965 -966 0
-965 -967 0
-965 -968 0
-965 -969 0
-965 -970 0
-965 -971 0
-965 -972 0
-965 -973 0
-965 -974 0
-965 -975 0
-965 -976 0
-965 -977 0
-965 -978 0
-965 -979 0
-965 -980 0
-965 -981 0
-965 -982 0
-965 -983 0
-965 -984 0
-965 -985 0
-965 -986 0
-965 -987 0
-965 -988 0
-965 -989 0
-965 -990 0
-965 -991 0
-966 -967 0
-966 -968 0
-966 -969 0
-966 -970 0
-966 -971 0
-966 -972 0
-966 -973 0
-966 -974 0
-966 -975 0
-966 -976 0
-966 -977 0
-966 -978 0
-966 -979 0
-966 -980 0
-966 -981 0
-966 -982 0
-966 -983 0
-966 -984 0
-966 -985 0
-966 -986 0
-966 -987 0
-966 -988 0
-966 -989 0
-966 -990 0
-966 -991 0
-967 -968 0
-967 -969 0
-967 -970 0
-967 -971 0
-967 -972 0
-967 -973 0
-967 -974 0
-967 -975 0
-967 -976 0
-967 -977 0
-967 -978 0
-967 -979 0
-967 -980 0
-967 -981 0
-967 -982 0
-967 -983 0
-967 -984 0
-967 -985 0
-967 -986 0
-967 -987 0
-967 -988 0
-967 -989 0
-967 -990 0
-967 -991 0
-968 -969 0
-968 -970 0
-968 -971 0
-968 -972 0
-968 -973 0
-968 -974 0
-968 -975 0
-968 -976 0
-968 -977 0
-968 -978 0
-968 -979 0
-968 -980 0
-968 -981 0
-968 -982 0
-968 -983 0
-968 -984 0
-968 -985 0
-968 -986 0
-968 -987 0
-968 -988 0
-968 -989 0
-968 -990 0
-968 -991 0
-969 -970 0
-969 -971 0
-969 -972 0
-969 -973 0
-969 -974 0
-969 -975 0
-969 -976 0
-969 -977 0
-969 -978 0
-969 -979 0
-969 -980 0
-969 -981 0
-969 -982 0
-969 -983 0
-969 -984 0
-969 -985 0
-969 -986 0
-969 -987 0
-969 -988 0
-969 -989 0
-969 -990 0
-969 -991 0
-970 -971 0
-970 -972 0
-970 -973 0
-970 -974 0
-970 -975 0
-970 -976 0
-970 -977 0
-970 -978 0
-970 -979 0
-970 -980 0
-970 -981 0
-970 -982 0
-970 -983 0
-970 -984 0
-970 -985 0
-970 -986 0
-970 -987 0
-970 -988 0
-970 -989 0
-970 -990 0
-970 -991 0
-971 -972 0
-971 -973 0
-971 -974 0
-971 -975 0
-971 -976 0
-971 -977 0
-971 -978 0
-971 -979 0
-971 -980 0
-971 -981 0
-971 -982 0
-971 -983 0
-971 -984 0
-971 -985 0
-971 -986 0
-971 -987 0
-971 -988 0
-971 -989 0
-971 -990 0
-971 -991 0
-972 -973 0
-972 -974 0
-972 -975 0
-972 -976 0
-972 -977 0
-972 -978 0
-972 -979 0
-972 -980 0
-972 -981 0
-972 -982 0
-972 -983 0
-972 -984 0
-972 -985 0
-972 -986 0
-972 -987 0
-972 -988 0
-972 -989 0
-972 -990 0
-972 -991 0
-973 -974 0
-973 -975 0
-973 -976 0
-973 -977 0
-973 -978 0
-973 -979 0
-973 -980 0
-973 -981 0
-973 -982 0
-973 -983 0
-973 -984 0
-973 -985 0
-973 -986 0
-973 -987 0
-973 -988 0
-973 -989 0
-973 -990 0
-973 -991 0
-974 -975 0
-974 -976 0
-974 -977 0
-974 -978 0
-974 -979 0
-974 -980 0
-974 -981 0
-974 -982 0
-974 -983 0
-974 -984 0
-974 -985 0
-974 -986 0
-974 -987 0
-974 -988 0
-974 -989 0
-974 -990 0
-974 -991 0
-975 -976 0
-975 -977 0
-975 -978 0
-975 -979 0
-975 -980 0
-975 -981 0
-975 -982 0
-975 -983 0
-975 -984 0
-975 -985 0
-975 -986 0
-975 -987 0
-975 -988 0
-975 -989 0
-975 -990 0
-975 -991 0
-976 -977 0
-976 -978 0
-976 -979 0
-976 -980 0
-976 -981 0
-976 -982 0
-976 -983 0
-976 -984 0
-976 -985 0
-976 -986 0
-976 -987 0
-976 -988 0
-976 -989 0
-976 -990 0
-976 -991 0
-977 -978 0
-977 -979 0
-977 -980 0
-977 -981 0
-977 -982 0
-977 -983 0
-977 -984 0
-977 -985 0
-977 -986 0
-977 -987 0
-977 -988 0
-977 -989 0
-977 -990 0
-977 -991 0
-978 -979 0
-978 -980 0
-978 -981 0
-978 -982 0
-978 -983 0
-978 -984 0
-978 -985 0
-978 -986 0
-978 -987 0
-978 -988 0
-978 -989 0
-978 -990 0
-978 -991 0
-979 -980 0
-979 -981 0
-979 -982 0
-979 -983 0
-979 -984 0
-979 -985 0
-979 -986 0
-979 -987 0
-979 -988 0
-979 -989 0
-979 -990 0
-979 -991 0
-980 -981 0
-980 -982 0
-980 -983 0
-980 -984 0
-980 -985 0
-980 -986 0
-980 -987 0
-980 -988 0
-980 -989 0
-980 -990 0
-980 -991 0
-981 -982 0
-981 -983 0
-981 -984 0
-981 -985 0
-981 -986 0
-981 -987 0
-981 -988 0
-981 -989 0
-981 -990 0
-981 -991 0
-982 -983 0
-982 -984 0
-982 -985 0
-982 -986 0
-982 -987 0
-982 -988 0
-982 -989 0
-982 -990 0
-982 -991 0
-983 -984 0
-983 -985 0
-983 -986 0
-983 -987 0
-983 -988 0
-983 -989 0
-983 -990 0
-983 -991 0
-984 -985 0
-984 -986 0
-984 -987 0
-984 -988 0
-984 -989 0
-984 -990 0
-984 -991 0
-985 -986 0
-985 -987 0
-985 -988 0
-985 -989 0
-985 -990 0
-985 -991 0
-986 -987 0
-986 -988 0
-986 -989 0
-986 -990 0
-986 -991 0
-987 -988 0
-987 -989 0
-987 -990 0
-987 -991 0
-988 -989 0
-988 -990 0
-988 -991 0
-989 -990 0
-989 -991 0
-990 -991 0
-911 130 951 0
-911 -130 952 0
-912 130 952 0
-912 -130 953 0
-913 130 953 0
-913 -130 954 0
-914 130 954 0
-914 -130 955 0
-915 130 955 0
-915 -130 956 0
-916 130 956 0
-916 -130 957 0
-917 130 957 0
-917 -130 958 0
-918 130 958 0
-918 -130 959 0
-919 130 959 0
-919 -130 960 0
-920 130 960 0
-920 -130 961 0
-921 130 961 0
-921 -130 962 0
-922 130 962 0
-922 -130 963 0
-923 130 963 0
-923 -130 964 0
-924 130 964 0
-924 -130 965 0
-925 130 965 0
-925 -130 966 0
-926 130 966 0
-926 -130 967 0
-927 130 967 0
-927 -130 968 0
-928 130 968 0
-928 -130 969 0
-929 130 969 0
-929 -130 970 0
-930 130 970 0
-930 -130 971 0
-931 130 971 0
-931 -130 972 0
-932 130 972 0
-932 -130 973 0
-933 130 973 0
-933 -130 974 0
-934 130 974 0
-934 -130 975 0
-935 130 975 0
-935 -130 976 0
-936 130 976 0
-936 -130 977 0
-937 130 977 0
-937 -130 978 0
-938 130 978 0
-938 -130 979 0
-939 130 979 0
-939 -130 980 0
-940 130 980 0
-940 -130 981 0
-941 130 981 0
-941 -130 982 0
-942 130 982 0
-942 -130 983 0
-943 130 983 0
-943 -130 984 0
-944 130 984 0
-944 -130 985 0
-945 130 985 0
-945 -130 986 0
-946 130 986 0
-946 -130 987 0
-947 130 987 0
-947 -130 988 0
-948 130 988 0
-948 -130 989 0
-949 130 989 0
-949 -130 990 0
-950 130 990 0
-950 -130 991 0
992 993 994 995 996 997 998 999 1000 1001 1002 1003 1004 1005 1006 1007 1008 1009 1010 1011 1012 1013 1014 1015 1016 1017 1018 1019 1020 1021 1022 1023 1024 1025 1026 1027 1028 1029 1030 1031 1032 1033 0
-992 -993 0
-992 -994 0
-992 -995 0
-992 -996 0
-992 -997 0
-992 -998 0
-992 -999 0
-992 -1000 0
-992 -1001 0
-992 -1002 0
-992 -1003 0
-992 -1004 0
-992 -1005 0
-992 -1006 0
-992 -1007 0
-992 -1008 0
-992 -1009 0
-992 -1010 0
-992 -1011 0
-992 -1012 0
-992 -1013 0
-992 -1014 0
-992 -1015 0
-992 -1016 0
-992 -1017 0
-992 -1018 0
-992 -1019 0
-992 -1020 0
-992 -1021 0
-992 -1022 0
-992 -1023 0
-992 -1024 0
-992 -1025 0
-992 -1026 0
-992 -1027 0
-992 -1028 0
-992 -1029 0
-992 -1030 0
-992 -1031 0
-992 -1032 0
-992 -1033 0
-993 -994 0
-993 -995 0
-993 -996 0
-993 -997 0
-993 -998 0
-993 -999 0
-993 -1000 0
-993 -1001 0
-993 -1002 0
-993 -1003 0
-993 -1004 0
-993 -1005 0
-993 -1006 0
-993 -1007 0
-993 -1008 0
-993 -1009 0
-993 -1010 0
-993 -1011 0
-993 -1012 0
-993 -1013 0
-993 -1014 0
-993 -1015 0
-993 -1016 0
-993 -1017 0
-993 -1018 0
-993 -1019 0
-993 -1020 0
-993 -1021 0
-993 -1022 0
-993 -1023 0
-993 -1024 0
-993 -1025 0
-993 -1026 0
-993 -1027 0
-993 -1028 0
-993 -1029 0
-993 -1030 0
-993 -1031 0
-993 -1032 0
-993 -1033 0
-994 -995 0
-994 -996 0
-994 -997 0
-994 -998 0
-994 -999 0
-994 -1000 0
-994 -1001 0
-994 -1002 0
-994 -1003 0
-994 -1004 0
-994 -1005 0
-994 -1006 0
-994 -1007 0
-994 -1008 0
-994 -1009 0
-994 -1010 0
-994 -1011 0
-994 -1012 0
-994 -1013 0
-994 -1014 0
-994 -1015 0
-994 -1016 0
-994 -1017 0
-994 -1018 0
-994 -1019 0
-994 -1020 0
-994 -1021 0
-994 -1022 0
-994 -1023 0
-994 -1024 0
-994 -1025 0
-994 -1026 0
-994 -1027 0
-994 -1028 0
-994 -1029 0
-994 -1030 0
-994 -1031 0
-994 -1032 0
-994 -1033 0
-995 -996 0
-995 -997 0
-995 -998 0
-995 -999 0
-995 -1000 0
-995 -1001 0
-995 -1002 0
-995 -1003 0
-995 -1004 0
-995 -1005 0
-995 -1006 0
-995 -1007 0
-995 -1008 0
-995 -1009 0
-995 -1010 0
-995 -1011 0
-995 -1012 0
-995 -1013 0
-995 -1014 0
-995 -1015 0
-995 -1016 0
-995 -1017 0
-995 -1018 0
-995 -1019 0
-995 -1020 0
-995 -1021 0
-995 -1022 0
-995 -1023 0
-995 -1024 0
-995 -1025 0
-995 -1026 0
-995 -1027 0
-995 -1028 0
-995 -1029 0
-995 -1030 0
-995 -1031 0
-995 -1032 0
-995 -1033 0
-996 -997 0
-996 -998 0
-996 -999 0
-996 -1000 0
-996 -1001 0
-996 -1002 0
-996 -1003 0
-996 -1004 0
-996 -1005 0
-996 -1006 0
-996 -1007 0
-996 -1008 0
-996 -1009 0
-996 -1010 0
-996 -1011 0
-996 -1012 0
-996 -1013 0
-996 -1014 0
-996 -1015 0
-996 -1016 0
-996 -1017 0
-996 -1018 0
-996 -1019 0
-996 -1020 0
-996 -1021 0
-996 -1022 0
-996 -1023 0
-996 -1024 0
-996 -1025 0
-996 -1026 0
-996 -1027 0
-996 -1028 0
-996 -1029 0
-996 -1030 0
-996 -1031 0
-996 -1032 0
-996 -1033 0
-997 -998 0
-997 -999 0
-997 -1000 0
-997 -1001 0
-997 -1002 0
-997 -1003 0
-997 -1004 0
-997 -1005 0
-997 -1006 0
-997 -1007 0
-997 -1008 0
-997 -1009 0
-997 -1010 0
-997 -1011 0
-997 -1012 0
-997 -1013 0
-997 -1014 0
-997 -1015 0
-997 -1016 0
-997 -1017 0
-997 -1018 0
-997 -1019 0
-997 -1020 0
-997 -1021 0
-997 -1022 0
-997 -1023 0
-997 -1024 0
-997 -1025 0
-997 -1026 0
-997 -1027 0
-997 -1028 0
-997 -1029 0
-997 -1030 0
-997 -1031 0
-997 -1032 0
-997 -1033 0
-998 -999 0
-998 -1000 0
-998 -1001 0
-998 -1002 0
-998 -1003 0
-998 -1004 0
-998 -1005 0
-998 -1006 0
-998 -1007 0
-998 -1008 0
-998 -1009 0
-998 -1010 0
-998 -1011 0
-998 -1012 0
-998 -1013 0
-998 -1014 0
-998 -1015 0
-998 -1016 0
-998 -1017 0
-998 -1018 0
-998 -1019 0
-998 -1020 0
-998 -1021 0
-998 -1022 0
-998 -1023 0
-998 -1024 0
-998 -1025 0
-998 -1026 0
-998 -1027 0
-998 -1028 0
-998 -1029 0
-998 -1030 0
-998 -1031 0
-998 -1032 0
-998 -1033 0
-999 -1000 0
-999 -1001 0
-999 -1002 0
-999 -1003 0
-999 -1004 0
-999 -1005 0
-999 -1006 0
-999 -1007 0
-999 -1008 0
-999 -1009 0
-999 -1010 0
-999 -1011 0
-999 -1012 0
-999 -1013 0
-999 -1014 0
-999 -1015 0
-999 -1016 0
-999 -1017 0
-999 -1018 0
-999 -1019 0
-999 -1020 0
-999 -1021 0
-999 -1022 0
-999 -1023 0
-999 -1024 0
-999 -1025 0
-999 -1026 0
-999 -1027 0
-999 -1028 0
-999 -1029 0
-999 -1030 0
-999 -1031 0
-999 -1032 0
-999 -1033 0
-1000 -1001 0
-1000 -1002 0
-1000 -1003 0
-1000 -1004 0
-1000 -1005 0
-1000 -1006 0
-1000 -1007 0
-1000 -1008 0
-1000 -1009 0
-1000 -1010 0
-1000 -1011 0
-1000 -1012 0
-1000 -1013 0
-1000 -1014 0
-1000 -1015 0
-1000 -1016 0
-1000 -1017 0
-1000 -1018 0
-1000 -1019 0
-1000 -1020 0
-1000 -1021 0
-1000 -1022 0
-1000 -1023 0
-1000 -1024 0
-1000 -1025 0
-1000 -1026 0
-1000 -1027 0
-1000 -1028 0
-1000 -1029 0
-1000 -1030 0
-1000 -1031 0
-1000 -1032 0
-1000 -1033 0
-1001 -1002 0
-1001 -1003 0
-1001 -1004 0
-1001 -1005 0
-1001 -1006 0
-1001 -1007 0
-1001 -1008 0
-1001 -1009 0
-1001 -1010 0
-1001 -1011 0
-1001 -1012 0
-1001 -1013 0
-1001 -1014 0
-1001 -1015 0
-1001 -1016 0
-1001 -1017 0
-1001 -1018 0
-1001 -1019 0
-1001 -1020 0
-1001 -1021 0
-1001 -1022 0
-1001 -1023 0
-1001 -1024 0
-1001 -1025 0
-1001 -1026 0
-1001 -1027 0
-1001 -1028 0
-1001 -1029 0
-1001 -1030 0
-1001 -1031 0
-1001 -1032 0
-1001 -1033 0
-1002 -1003 0
-1002 -1004 0
-1002 -1005 0
-1002 -1006 0
-1002 -1007 0
-1002 -1008 0
-1002 -1009 0
-1002 -1010 0
-1002 -1011 0
-1002 -1012 0
-1002 -1013 0
-1002 -1014 0
-1002 -1015 0
-1002 -1016 0
-1002 -1017 0
-1002 -1018 0
-1002 -1019 0
-1002 -1020 0
-1002 -1021 0
-1002 -1022 0
-1002 -1023 0
-1002 -1024 0
-1002 -1025 0
-1002 -1026 0
-1002 -1027 0
-1002 -1028 0
-1002 -1029 0
-1002 -1030 0
-1002 -1031 0
-1002 -1032 0
-1002 -1033 0
-1003 -1004 0
-1003 -1005 0
-1003 -1006 0
-1003 -1007 0
-1003 -1008 0
-1003 -1009 0
-1003 -1010 0
-1003 -1011 0
-1003 -1012 0
-1003 -1013 0
-1003 -1014 0
-1003 -1015 0
-1003 -1016 0
-1003 -1017 0
-1003 -1018 0
-1003 -1019 0
-1003 -1020 0
-1003 -1021 0
-1003 -1022 0
-1003 -1023 0
-1003 -1024 0
-1003 -1025 0
-1003 -1026 0
-1003 -1027 0
-1003 -1028 0
-1003 -1029 0
-1003 -1030 0
-1003 -1031 0
-1003 -1032 0
-1003 -1033 0
-1004 -1005 0
-1004 -1006 0
-1004 -1007 0
-1004 -1008 0
-1004 -1009 0
-1004 -1010 0
-1004 -1011 0
-1004 -1012 0
-1004 -1013 0
-1004 -1014 0
-1004 -1015 0
-1004 -1016 0
-1004 -1017 0
-1004 -1018 0
-1004 -1019 0
-1004 -1020 0
-1004 -1021 0
-1004 -1022 0
-1004 -1023 0
-1004 -1024 0
-1004 -1025 0
-1004 -1026 0
-1004 -1027 0
-1004 -1028 0
-1004 -1029 0
-1004 -1030 0
-1004 -1031 0
-1004 -1032 0
-1004 -1033 0
-1005 -1006 0
-1005 -1007 0
-1005 -1008 0
-1005 -1009 0
-1005 -1010 0
-1005 -1011 0
-1005 -1012 0
-1005 -1013 0
-1005 -1014 0
-1005 -1015 0
-1005 -1016 0
-1005 -1017 0
-1005 -1018 0
-1005 -1019 0
-1005 -1020 0
-1005 -1021 0
-1005 -1022 0
-1005 -1023 0
-1005 -1024 0
-1005 -1025 0
-1005 -1026 0
-1005 -1027 0
-1005 -1028 0
-1005 -1029 0
-1005 -1030 0
-1005 -1031 0
-1005 -1032 0
-1005 -1033 0
-1006 -1007 0
-1006 -1008 0
-1006 -1009 0
-1006 -1010 0
-1006 -1011 0
-1006 -1012 0
-1006 -1013 0
-1006 -1014 0
-1006 -1015 0
-1006 -1016 0
-1006 -1017 0
-1006 -1018 0
-1006 -1019 0
-1006 -1020 0
-1006 -1021 0
-1006 -1022 0
-1006 -1023 0
-1006 -1024 0
-1006 -1025 0
-1006 -1026 0
-1006 -1027 0
-1006 -1028 0
-1006 -1029 0
-1006 -1030 0
-1006 -1031 0
-1006 -1032 0
-1006 -1033 0
-1007 -1008 0
-1007 -1009 0
-1007 -1010 0
-1007 -1011 0
-1007 -1012 0
-1007 -1013 0
-1007 -1014 0
-1007 -1015 0
-1007 -1016 0
-1007 -1017 0
-1007 -1018 0
-1007 -1019 0
-1007 -1020 0
-1007 -1021 0
-1007 -1022 0
-1007 -1023 0
-1007 -1024 0
-1007 -1025 0
-1007 -1026 0
-1007 -1027 0
-1007 -1028 0
-1007 -1029 0
-1007 -1030 0
-1007 -1031 0
-1007 -1032 0
-1007 -1033 0
-1008 -1009 0
-1008 -1010 0
-1008 -1011 0
-1008 -1012 0
-1008 -1013 0
-1008 -1014 0
-1008 -1015 0
-1008 -1016 0
-1008 -1017 0
-1008 -1018 0
-1008 -1019 0
-1008 -1020 0
-1008 -1021 0
-1008 -1022 0
-1008 -1023 0
-1008 -1024 0
-1008 -1025 0
-1008 -1026 0
-1008 -1027 0
-1008 -1028 0
-1008 -1029 0
-1008 -1030 0
-1008 -1031 0
-1008 -1032 0
-1008 -1033 0
-1009 -1010 0
-1009 -1011 0
-1009 -1012 0
-1009 -1013 0
-1009 -1014 0
-1009 -1015 0
-1009 -1016 0
-1009 -1017 0
-1009 -1018 0
-1009 -1019 0
-1009 -1020 0
-1009 -1021 0
-1009 -1022 0
-1009 -1023 0
-1009 -1024 0
-1009 -1025 0
-1009 -1026 0
-1009 -1027 0
-1009 -1028 0
-1009 -1029 0
-1009 -1030 0
-1009 -1031 0
-1009 -1032 0
-1009 -1033 0
-1010 -1011 0
-1010 -1012 0
-1010 -1013 0
-1010 -1014 0
-1010 -1015 0
-1010 -1016 0
-1010 -1017 0
-1010 -1018 0
-1010 -1019 0
-1010 -1020 0
-1010 -1021 0
-1010 -1022 0
-1010 -1023 0
-1010 -1024 0
-1010 -1025 0
-1010 -1026 0
-1010 -1027 0
-1010 -1028 0
-1010 -1029 0
-1010 -1030 0
-1010 -1031 0
-1010 -1032 0
-1010 -1033 0
-1011 -1012 0
-1011 -1013 0
-1011 -1014 0
-1011 -1015 0
-1011 -1016 0
-1011 -1017 0
-1011 -1018 0
-1011 -1019 0
-1011 -1020 0
-1011 -1021 0
-1011 -1022 0
-1011 -1023 0
-1011 -1024 0
-1011 -1025 0
-1011 -1026 0
-1011 -1027 0
-1011 -1028 0
-1011 -1029 0
-1011 -1030 0
-1011 -1031 0
-1011 -1032 0
-1011 -1033 0
-1012 -1013 0
-1012 -1014 0
-1012 -1015 0
-1012 -1016 0
-1012 -1017 0
-1012 -1018 0
-1012 -1019 0
-1012 -1020 0
-1012 -1021 0
-1012 -1022 0
-1012 -1023 0
-1012 -1024 0
-1012 -1025 0
-1012 -1026 0
-1012 -1027 0
-1012 -1028 0
-1012 -1029 0
-1012 -1030 0
-1012 -1031 0
-1012 -1032 0
-1012 -1033 0
-1013 -1014 0
-1013 -1015 0
-1013 -1016 0
-1013 -1017 0
-1013 -1018 0
-1013 -1019 0
-1013 -1020 0
-1013 -1021 0
-1013 -1022 0
-1013 -1023 0
-1013 -1024 0
-1013 -1025 0
-1013 -1026 0
-1013 -1027 0
-1013 -1028 0
-1013 -1029 0
-1013 -1030 0
-1013 -1031 0
-1013 -1032 0
-1013 -1033 0
-1014 -1015 0
-1014 -1016 0
-1014 -1017 0
-1014 -1018 0
-1014 -1019 0
-1014 -1020 0
-1014 -1021 0
-1014 -1022 0
-1014 -1023 0
-1014 -1024 0
-1014 -1025 0
-1014 -1026 0
-1014 -1027 0
-1014 -1028 0
-1014 -1029 0
-1014 -1030 0
-1014 -1031 0
-1014 -1032 0
-1014 -1033 0
-1015 -1016 0
-1015 -1017 0
-1015 -1018 0
-1015 -1019 0
-1015 -1020 0
-1015 -1021 0
-1015 -1022 0
-1015 -1023 0
-1015 -1024 0
-1015 -1025 0
-1015 -1026 0
-1015 -1027 0
-1015 -1028 0
-1015 -1029 0
-1015 -1030 0
-1015 -1031 0
-1015 -1032 0
-1015 -1033 0
-1016 -1017 0
-1016 -1018 0
-1016 -1019 0
-1016 -1020 0
-1016 -1021 0
-1016 -1022 0
-1016 -1023 0
-1016 -1024 0
-1016 -1025 0
-1016 -1026 0
-1016 -1027 0
-1016 -1028 0
-1016 -1029 0
-1016 -1030 0
-1016 -1031 0
-1016 -1032 0
-1016 -1033 0
-1017 -1018 0
-1017 -1019 0
-1017 -1020 0
-1017 -1021 0
-1017 -1022 0
-1017 -1023 0
-1017 -1024 0
-1017 -1025 0
-1017 -1026 0
-1017 -1027 0
-1017 -1028 0
-1017 -1029 0
-1017 -1030 0
-1017 -1031 0
-1017 -1032 0
-1017 -1033 0
-1018 -1019 0
-1018 -1020 0
-1018 -1021 0
-1018 -1022 0
-1018 -1023 0
-1018 -1024 0
-1018 -1025 0
-1018 -1026 0
-1018 -1027 0
-1018 -1028 0
-1018 -1029 0
-1018 -1030 0
-1018 -1031 0
-1018 -1032 0
-1018 -1033 0
-1019 -1020 0
-1019 -1021 0
-1019 -1022 0
-1019 -1023 0
-1019 -1024 0
-1019 -1025 0
-1019 -1026 0
-1019 -1027 0
-1019 -1028 0
-1019 -1029 0
-1019 -1030 0
-1019 -1031 0
-1019 -1032 0
-1019 -1033 0
-1020 -1021 0
-1020 -1022 0
-1020 -1023 0
-1020 -1024 0
-1020 -1025 0
-1020 -1026 0
-1020 -1027 0
-1020 -1028 0
-1020 -1029 0
-1020 -1030 0
-1020 -1031 0
-1020 -1032 0
-1020 -1033 0
-1021 -1022 0
-1021 -1023 0
-1021 -1024 0
-1021 -1025 0
-1021 -1026 0
-1021 -1027 0
-1021 -1028 0
-1021 -1029 0
-1021 -1030 0
-1021 -1031 0
-1021 -1032 0
-1021 -1033 0
-1022 -1023 0
-1022 -1024 0
-1022 -1025 0
-1022 -1026 0
-1022 -1027 0
-1022 -1028 0
-1022 -1029 0
-1022 -1030 0
-1022 -1031 0
-1022 -1032 0
-1022 -1033 0
-1023 -1024 0
-1023 -1025 0
-1023 -1026 0
-1023 -1027 0
-1023 -1028 0
-1023 -1029 0
-1023 -1030 0
-1023 -1031 0
-1023 -1032 0
-1023 -1033 0
-1024 -1025 0
-1024 -1026 0
-1024 -1027 0
-1024 -1028 0
-1024 -1029 0
-1024 -1030 0
-1024 -1031 0
-1024 -1032 0
-1024 -1033 0
-1025 -1026 0
-1025 -1027 0
-1025 -1028 0
-1025 -1029 0
-1025 -1030 0
-1025 -1031 0
-1025 -1032 0
-1025 -1033 0
-1026 -1027 0
-1026 -1028 0
-1026 -1029 0
-1026 -1030 0
-1026 -1031 0
-1026 -1032 0
-1026 -1033 0
-1027 -1028 0
-1027 -1029 0
-1027 -1030 0
-1027 -1031 0
-1027 -1032 0
-1027 -1033 0
-1028 -1029 0
-1028 -1030 0
-1028 -1031 0
-1028 -1032 0
-1028 -1033 0
-1029 -1030 0
-1029 -1031 0
-1029 -1032 0
-1029 -1033 0
-1030 -1031 0
-1030 -1032 0
-1030 -1033 0
-1031 -1032 0
-1031 -1033 0
-1032 -1033 0
-951 3 993 0
-951 -3 992 0
-952 3 994 0
-952 -3 993 0
-953 3 995 0
-953 -3 994 0
-954 3 996 0
-954 -3 995 0
-955 3 997 0
-955 -3 996 0
-956 3 998 0
-956 -3 997 0
-957 3 999 0
-957 -3 998 0
-958 3 1000 0
-958 -3 999 0
-959 3 1001 0
-959 -3 1000 0
-960 3 1002 0
-960 -3 1001 0
-961 3 1003 0
-961 -3 1002 0
-962 3 1004 0
-962 -3 1003 0
-963 3 1005 0
-963 -3 1004 0
-964 3 1006 0
-964 -3 1005 0
-965 3 1007 0
-965 -3 1006 0
-966 3 1008 0
-966 -3 1007 0
-967 3 1009 0
-967 -3 1008 0
-968 3 1010 0
-968 -3 1009 0
-969 3 1011 0
-969 -3 1010 0
-970 3 1012 0
-970 -3 1011 0
-971 3 1013 0
-971 -3 1012 0
-972 3 1014 0
-972 -3 1013 0
-973 3 1015 0
-973 -3 1014 0
-974 3 1016 0
-974 -3 1015 0
-975 3 1017 0
-975 -3 1016 0
-976 3 1018 0
-976 -3 1017 0
-977 3 1019 0
-977 -3 1018 0
-978 3 1020 0
-978 -3 1019 0
-979 3 1021 0
-979 -3 1020 0
-980 3 1022 0
-980 -3 1021 0
-981 3 1023 0
-981 -3 1022 0
-982 3 1024 0
-982 -3 1023 0
-983 3 1025 0
-983 -3 1024 0
-984 3 1026 0
-984 -3 1025 0
-985 3 1027 0
-985 -3 1026 0
-986 3 1028 0
-986 -3 1027 0
-987 3 1029 0
-987 -3 1028 0
-988 3 1030 0
-988 -3 1029 0
-989 3 1031 0
-989 -3 1030 0
-990 3 1032 0
-990 -3 1031 0
-991 3 1033 0
-991 -3 1032 0
1034 1035 1036 1037 1038 1039 1040 1041 1042 1043 1044 1045 1046 1047 1048 1049 1050 1051 1052 1053 1054 1055 1056 1057 1058 1059 1060 1061 1062 1063 1064 1065 1066 1067 1068 1069 1070 1071 1072 1073 1074 1075 1076 0
-1034 -1035 0
-1034 -1036 0
-1034 -1037 0
-1034 -1038 0
-1034 -1039 0
-1034 -1040 0
-1034 -1041 0
-1034 -1042 0
-1034 -1043 0
-1034 -1044 0
-1034 -1045 0
-1034 -1046 0
-1034 -1047 0
-1034 -1048 0
-1034 -1049 0
-1034 -1050 0
-1034 -1051 0
-1034 -1052 0
-1034 -1053 0
-1034 -1054 0
-1034 -1055 0
-1034 -1056 0
-1034 -1057 0
-1034 -1058 0
-1034 -1059 0
-1034 -1060 0
-1034 -1061 0
-1034 -1062 0
-1034 -1063 0
-1034 -1064 0
-1034 -1065 0
-1034 -1066 0
-1034 -1067 0
-1034 -1068 0
-1034 -1069 0
-1034 -1070 0
-1034 -1071 0
-1034 -1072 0
-1034 -1073 0
-1034 -1074 0
-1034 -1075 0
-1034 -1076 0
-1035 -1036 0
-1035 -1037 0
-1035 -1038 0
-1035 -1039 0
-1035 -1040 0
-1035 -1041 0
-1035 -1042 0
-1035 -1043 0
-1035 -1044 0
-1035 -1045 0
-1035 -1046 0
-1035 -1047 0
-1035 -1048 0
-1035 -1049 0
-1035 -1050 0
-1035 -1051 0
-1035 -1052 0
-1035 -1053 0
-1035 -1054 0
-1035 -1055 0
-1035 -1056 0
-1035 -1057 0
-1035 -1058 0
-1035 -1059 0
-1035 -1060 0
-1035 -1061 0
-1035 -1062 0
-1035 -1063 0
-1035 -1064 0
-1035 -1065 0
-1035 -1066 0
-1035 -1067 0
-1035 -1068 0
-1035 -1069 0
-1035 -1070 0
-1035 -1071 0
-1035 -1072 0
-1035 -1073 0
-1035 -1074 0
-1035 -1075 0
-1035 -1076 0
-1036 -1037 0
-1036 -1038 0
-1036 -1039 0
-1036 -1040 0
-1036 -1041 0
-1036 -1042 0
-1036 -1043 0
-1036 -1044 0
-1036 -1045 0
-1036 -1046 0
-1036 -1047 0
-1036 -1048 0
-1036 -1049 0
-1036 -1050 0
-1036 -1051 0
-1036 -1052 0
-1036 -1053 0
-1036 -1054 0
-1036 -1055 0
-1036 -1056 0
-1036 -1057 0
-1036 -1058 0
-1036 -1059 0
-1036 -1060 0
-1036 -1061 0
-1036 -1062 0
-1036 -1063 0
-1036 -1064 0
-1036 -1065 0
-1036 -1066 0
-1036 -1067 0
-1036 -1068 0
-1036 -1069 0
-1036 -1070 0
-1036 -1071 0
-1036 -1072 0
-1036 -1073 0
-1036 -1074 0
-1036 -1075 0
-1036 -1076 0
-1037 -1038 0
-1037 -1039 0
-1037 -1040 0
-1037 -1041 0
-1037 -1042 0
-1037 -1043 0
-1037 -1044 0
-1037 -1045 0
-1037 -1046 0
-1037 -1047 0
-1037 -1048 0
-1037 -1049 0
-1037 -1050 0
-1037 -1051 0
-1037 -1052 0
-1037 -1053 0
-1037 -1054 0
-1037 -1055 0
-1037 -1056 0
-1037 -1057 0
-1037 -1058 0
-1037 -1059 0
-1037 -1060 0
-1037 -1061 0
-1037 -1062 0
-1037 -1063 0
-1037 -1064 0
-1037 -1065 0
-1037 -1066 0
-1037 -1067 0
-1037 -1068 0
-1037 -1069 0
-1037 -1070 0
-1037 -1071 0
-1037 -1072 0
-1037 -1073 0
-1037 -1074 0
-1037 -1075 0
-1037 -1076 0
-1038 -1039 0
-1038 -1040 0
-1038 -1041 0
-1038 -1042 0
-1038 -1043 0
-1038 -1044 0
-1038 -1045 0
-1038 -1046 0
-1038 -1047 0
-1038 -1048 0
-1038 -1049 0
-1038 -1050 0
-1038 -1051 0
-1038 -1052 0
-1038 -1053 0
-1038 -1054 0
-1038 -1055 0
-1038 -1056 0
-1038 -1057 0
-1038 -1058 0
-1038 -1059 0
-1038 -1060 0
-1038 -1061 0
-1038 -1062 0
-1038 -1063 0
-1038 -1064 0
-1038 -1065 0
-1038 -1066 0
-1038 -1067 0
-1038 -1068 0
-1038 -1069 0
-1038 -1070 0
-1038 -1071 0
-1038 -1072 0
-1038 -1073 0
-1038 -1074 0
-1038 -1075 0
-1038 -1076 0
-1039 -1040 0
-1039 -1041 0
-1039 -1042 0
-1039 -1043 0
-1039 -1044 0
-1039 -1045 0
-1039 -1046 0
-1039 -1047 0
-1039 -1048 0
-1039 -1049 0
-1039 -1050 0
-1039 -1051 0
-1039 -1052 0
-1039 -1053 0
-1039 -1054 0
-1039 -1055 0
-1039 -1056 0
-1039 -1057 0
-1039 -1058 0
-1039 -1059 0
-1039 -1060 0
-1039 -1061 0
-1039 -1062 0
-1039 -1063 0
-1039 -1064 0
-1039 -1065 0
-1039 -1066 0
-1039 -1067 0
-1039 -1068 0
-1039 -1069 0
-1039 -1070 0
-1039 -1071 0
-1039 -1072 0
-1039 -1073 0
-1039 -1074 0
-1039 -1075 0
-1039 -1076 0
-1040 -1041 0
-1040 -1042 0
-1040 -1043 0
-1040 -1044 0
-1040 -1045 0
-1040 -1046 0
-1040 -1047 0
-1040 -1048 0
-1040 -1049 0
-1040 -1050 0
-1040 -1051 0
-1040 -1052 0
-1040 -1053 0
-1040 -1054 0
-1040 -1055 0
-1040 -1056 0
-1040 -1057 0
-1040 -1058 0
-1040 -1059 0
-1040 -1060 0
-1040 -1061 0
-1040 -1062 0
-1040 -1063 0
-1040 -1064 0
-1040 -1065 0
-1040 -1066 0
-1040 -1067 0
-1040 -1068 0
-1040 -1069 0
-1040 -1070 0
-1040 -1071 0
-1040 -1072 0
-1040 -1073 0
-1040 -1074 0
-1040 -1075 0
-1040 -1076 0
-1041 -1042 0
-1041 -1043 0
-1041 -1044 0
-1041 -1045 0
-1041 -1046 0
-1041 -1047 0
-1041 -1048 0
-1041 -1049 0
-1041 -1050 0
-1041 -1051 0
-1041 -1052 0
-1041 -1053 0
-1041 -1054 0
-1041 -1055 0
-1041 -1056 0
-1041 -1057 0
-1041 -1058 0
-1041 -1059 0
-1041 -1060 0
-1041 -1061 0
-1041 -1062 0
-1041 -1063 0
-1041 -1064 0
-1041 -1065 0
-1041 -1066 0
-1041 -1067 0
-1041 -1068 0
-1041 -1069 0
-1041 -1070 0
-1041 -1071 0
-1041 -1072 0
-1041 -1073 0
-1041 -1074 0
-1041 -1075 0
-1041 -1076 0
-1042 -1043 0
-1042 -1044 0
-1042 -1045 0
-1042 -1046 0
-1042 -1047 0
-1042 -1048 0
-1042 -1049 0
-1042 -1050 0
-1042 -1051 0
-1042 -1052 0
-1042 -1053 0
-1042 -1054 0
-1042 -1055 0
-1042 -1056 0
-1042 -1057 0
-1042 -1058 0
-1042 -1059 0
-1042 -1060 0
-1042 -1061 0
-1042 -1062 0
-1042 -1063 0
-1042 -1064 0
-1042 -1065 0
-1042 -1066 0
-1042 -1067 0
-1042 -1068 0
-1042 -1069 0
-1042 -1070 0
-1042 -1071 0
-1042 -1072 0
-1042 -1073 0
-1042 -1074 0
-1042 -1075 0
-1042 -1076 0
-1043 -1044 0
-1043 -1045 0
-1043 -1046 0
-1043 -1047 0
-1043 -1048 0
-1043 -1049 0
-1043 -1050 0
-1043 -1051 0
-1043 -1052 0
-1043 -1053 0
-1043 -1054 0
-1043 -1055 0
-1043 -1056 0
-1043 -1057 0
-1043 -1058 0
-1043 -1059 0
-1043 -1060 0
-1043 -1061 0
-1043 -1062 0
-1043 -1063 0
-1043 -1064 0
-1043 -1065 0
-1043 -1066 0
-1043 -1067 0
-1043 -1068 0
-1043 -1069 0
-1043 -1070 0
-1043 -1071 0
-1043 -1072 0
-1043 -1073 0
-1043 -1074 0
-1043 -1075 0
-1043 -1076 0
-1044 -1045 0
-1044 -1046 0
-1044 -1047 0
-1044 -1048 0
-1044 -1049 0
-1044 -1050 0
-1044 -1051 0
-1044 -1052 0
-1044 -1053 0
-1044 -1054 0
-1044 -1055 0
-1044 -1056 0
-1044 -1057 0
-1044 -1058 0
-1044 -1059 0
-1044 -1060 0
-1044 -1061 0
-1044 -1062 0
-1044 -1063 0
-1044 -1064 0
-1044 -1065 0
-1044 -1066 0
-1044 -1067 0
-1044 -1068 0
-1044 -1069 0
-1044 -1070 0
-1044 -1071 0
-1044 -1072 0
-1044 -1073 0
-1044 -1074 0
-1044 -1075 0
-1044 -1076 0
-1045 -1046 0
-1045 -1047 0
-1045 -1048 0
-1045 -1049 0
-1045 -1050 0
-1045 -1051 0
-1045 -1052 0
-1045 -1053 0
-1045 -1054 0
-1045 -1055 0
-1045 -1056 0
-1045 -1057 0
-1045 -1058 0
-1045 -1059 0
-1045 -1060 0
-1045 -1061 0
-1045 -1062 0
-1045 -1063 0
-1045 -1064 0
-1045 -1065 0
-1045 -1066 0
-1045 -1067 0
-1045 -1068 0
-1045 -1069 0
-1045 -1070 0
-1045 -1071 0
-1045 -1072 0
-1045 -1073 0
-1045 -1074 0
-1045 -1075 0
-1045 -1076 0
-1046 -1047 0
-1046 -1048 0
-1046 -1049 0
-1046 -1050 0
-1046 -1051 0
-1046 -1052 0
-1046 -1053 0
-1046 -1054 0
-1046 -1055 0
-1046 -1056 0
-1046 -1057 0
-1046 -1058 0
-1046 -1059 0
-1046 -1060 0
-1046 -1061 0
-1046 -1062 0
-1046 -1063 0
-1046 -1064 0
-1046 -1065 0
-1046 -1066 0
-1046 -1067 0
-1046 -1068 0
-1046 -1069 0
-1046 -1070 0
-1046 -1071 0
-1046 -1072 0
-1046 -1073 0
-1046 -1074 0
-1046 -1075 0
-1046 -1076 0
-1047 -1048 0
-1047 -1049 0
-1047 -1050 0
-1047 -1051 0
-1047 -1052 0
-1047 -1053 0
-1047 -1054 0
-1047 -1055 0
-1047 -1056 0
-1047 -1057 0
-1047 -1058 0
-1047 -1059 0
-1047 -1060 0
-1047 -1061 0
-1047 -1062 0
-1047 -1063 0
-1047 -1064 0
-1047 -1065 0
-1047 -1066 0
-1047 -1067 0
-1047 -1068 0
-1047 -1069 0
-1047 -1070 0
-1047 -1071 0
-1047 -1072 0
-1047 -1073 0
-1047 -1074 0
-1047 -1075 0
-1047 -1076 0
-1048 -1049 0
-1048 -1050 0
-1048 -1051 0
-1048 -1052 0
-1048 -1053 0
-1048 -1054 0
-1048 -1055 0
-1048 -1056 0
-1048 -1057 0
-1048 -1058 0
-1048 -1059 0
-1048 -1060 0
-1048 -1061 0
-1048 -1062 0
-1048 -1063 0
-1048 -1064 0
-1048 -1065 0
-1048 -1066 0
-1048 -1067 0
-1048 -1068 0
-1048 -1069 0
-1048 -1070 0
-1048 -1071 0
-1048 -1072 0
-1048 -1073 0
-1048 -1074 0
-1048 -1075 0
-1048 -1076 0
-1049 -1050 0
-1049 -1051 0
-1049 -1052 0
-1049 -1053 0
-1049 -1054 0
-1049 -1055 0
-1049 -1056 0
-1049 -1057 0
-1049 -1058 0
-1049 -1059 0
-1049 -1060 0
-1049 -1061 0
-1049 -1062 0
-1049 -1063 0
-1049 -1064 0
-1049 -1065 0
-1049 -1066 0
-1049 -1067 0
-1049 -1068 0
-1049 -1069 0
-1049 -1070 0
-1049 -1071 0
-1049 -1072 0
-1049 -1073 0
-1049 -1074 0
-1049 -1075 0
-1049 -1076 0
-1050 -1051 0
-1050 -1052 0
-1050 -1053 0
-1050 -1054 0
-1050 -1055 0
-1050 -1056 0
-1050 -1057 0
-1050 -1058 0
-1050 -1059 0
-1050 -1060 0
-1050 -1061 0
-1050 -1062 0
-1050 -1063 0
-1050 -1064 0
-1050 -1065 0
-1050 -1066 0
-1050 -1067 0
-1050 -1068 0
-1050 -1069 0
-1050 -1070 0
-1050 -1071 0
-1050 -1072 0
-1050 -1073 0
-1050 -1074 0
-1050 -1075 0
-1050 -1076 0
-1051 -1052 0
-1051 -1053 0
-1051 -1054 0
-1051 -1055 0
-1051 -1056 0
-1051 -1057 0
-1051 -1058 0
-1051 -1059 0
-1051 -1060 0
-1051 -1061 0
-1051 -1062 0
-1051 -1063 0
-1051 -1064 0
-1051 -1065 0
-1051 -1066 0
-1051 -1067 0
-1051 -1068 0
-1051 -1069 0
-1051 -1070 0
-1051 -1071 0
-1051 -1072 0
-1051 -1073 0
-1051 -1074 0
-1051 -1075 0
-1051 -1076 0
-1052 -1053 0
-1052 -1054 0
-1052 -1055 0
-1052 -1056 0
-1052 -1057 0
-1052 -1058 0
-1052 -1059 0
-1052 -1060 0
-1052 -1061 0
-1052 -1062 0
-1052 -1063 0
-1052 -1064 0
-1052 -1065 0
-1052 -1066 0
-1052 -1067 0
-1052 -1068 0
-1052 -1069 0
-1052 -1070 0
-1052 -1071 0
-1052 -1072 0
-1052 -1073 0
-1052 -1074 0
-1052 -1075 0
-1052 -1076 0
-1053 -1054 0
-1053 -1055 0
-1053 -1056 0
-1053 -1057 0
-1053 -1058 0
-1053 -1059 0
-1053 -1060 0
-1053 -1061 0
-1053 -1062 0
-1053 -1063 0
-1053 -1064 0
-1053 -1065 0
-1053 -1066 0
-1053 -1067 0
-1053 -1068 0
-1053 -1069 0
-1053 -1070 0
-1053 -1071 0
-1053 -1072 0
-1053 -1073 0
-1053 -1074 0
-1053 -1075 0
-1053 -1076 0
-1054 -1055 0
-1054 -1056 0
-1054 -1057 0
-1054 -1058 0
-1054 -1059 0
-1054 -1060 0
-1054 -1061 0
-1054 -1062 0
-1054 -1063 0
-1054 -1064 0
-1054 -1065 0
-1054 -1066 0
-1054 -1067 0
-1054 -1068 0
-1054 -1069 0
-1054 -1070 0
-1054 -1071 0
-1054 -1072 0
-1054 -1073 0
-1054 -1074 0
-1054 -1075 0
-1054 -1076 0
-1055 -1056 0
-1055 -1057 0
-1055 -1058 0
-1055 -1059 0
-1055 -1060 0
-1055 -1061 0
-1055 -1062 0
-1055 -1063 0
-1055 -1064 0
-1055 -1065 0
-1055 -1066 0
-1055 -1067 0
-1055 -1068 0
-1055 -1069 0
-1055 -1070 0
-1055 -1071 0
-1055 -1072 0
-1055 -1073 0
-1055 -1074 0
-1055 -1075 0
-1055 -1076 0
-1056 -1057 0
-1056 -1058 0
-1056 -1059 0
-1056 -1060 0
-1056 -1061 0
-1056 -1062 0
-1056 -1063 0
-1056 -1064 0
-1056 -1065 0
-1056 -1066 0
-1056 -1067 0
-1056 -1068 0
-1056 -1069 0
-1056 -1070 0
-1056 -1071 0
-1056 -1072 0
-1056 -1073 0
-1056 -1074 0
-1056 -1075 0
-1056 -1076 0
-1057 -1058 0
-1057 -1059 0
-1057 -1060 0
-1057 -1061 0
-1057 -1062 0
-1057 -1063 0
-1057 -1064 0
-1057 -1065 0
-1057 -1066 0
-1057 -1067 0
-1057 -1068 0
-1057 -1069 0
-1057 -1070 0
-1057 -1071 0
-1057 -1072 0
-1057 -1073 0
-1057 -1074 0
-1057 -1075 0
-1057 -1076 0
-1058 -1059 0
-1058 -1060 0
-1058 -1061 0
-1058 -1062 0
-1058 -1063 0
-1058 -1064 0
-1058 -1065 0
-1058 -1066 0
-1058 -1067 0
-1058 -1068 0
-1058 -1069 0
-1058 -1070 0
-1058 -1071 0
-1058 -1072 0
-1058 -1073 0
-1058 -1074 0
-1058 -1075 0
-1058 -1076 0
-1059 -1060 0
-1059 -1061 0
-1059 -1062 0
-1059 -1063 0
-1059 -1064 0
-1059 -1065 0
-1059 -1066 0
-1059 -1067 0
-1059 -1068 0
-1059 -1069 0
-1059 -1070 0
-1059 -1071 0
-1059 -1072 0
-1059 -1073 0
-1059 -1074 0
-1059 -1075 0
-1059 -1076 0
-1060 -1061 0
-1060 -1062 0
-1060 -1063 0
-1060 -1064 0
-1060 -1065 0
-1060 -1066 0
-1060 -1067 0
-1060 -1068 0
-1060 -1069 0
-1060 -1070 0
-1060 -1071 0
-1060 -1072 0
-1060 -1073 0
-1060 -1074 0
-1060 -1075 0
-1060 -1076 0
-1061 -1062 0
-1061 -1063 0
-1061 -1064 0
-1061 -1065 0
-1061 -1066 0
-1061 -1067 0
-1061 -1068 0
-1061 -1069 0
-1061 -1070 0
-1061 -1071 0
-1061 -1072 0
-1061 -1073 0
-1061 -1074 0
-1061 -1075 0
-1061 -1076 0
-1062 -1063 0
-1062 -1064 0
-1062 -1065 0
-1062 -1066 0
-1062 -1067 0
-1062 -1068 0
-1062 -1069 0
-1062 -1070 0
-1062 -1071 0
-1062 -1072 0
-1062 -1073 0
-1062 -1074 0
-1062 -1075 0
-1062 -1076 0
-1063 -1064 0
-1063 -1065 0
-1063 -1066 0
-1063 -1067 0
-1063 -1068 0
-1063 -1069 0
-1063 -1070 0
-1063 -1071 0
-1063 -1072 0
-1063 -1073 0
-1063 -1074 0
-1063 -1075 0
-1063 -1076 0
-1064 -1065 0
-1064 -1066 0
-1064 -1067 0
-1064 -1068 0
-1064 -1069 0
-1064 -1070 0
-1064 -1071 0
-1064 -1072 0
-1064 -1073 0
-1064 -1074 0
-1064 -1075 0
-1064 -1076 0
-1065 -1066 0
-1065 -1067 0
-1065 -1068 0
-1065 -1069 0
-1065 -1070 0
-1065 -1071 0
-1065 -1072 0
-1065 -1073 0
-1065 -1074 0
-1065 -1075 0
-1065 -1076 0
-1066 -1067 0
-1066 -1068 0
-1066 -1069 0
-1066 -1070 0
-1066 -1071 0
-1066 -1072 0
-1066 -1073 0
-1066 -1074 0
-1066 -1075 0
-1066 -1076 0
-1067 -1068 0
-1067 -1069 0
-1067 -1070 0
-1067 -1071 0
-1067 -1072 0
-1067 -1073 0
-1067 -1074 0
-1067 -1075 0
-1067 -1076 0
-1068 -1069 0
-1068 -1070 0
-1068 -1071 0
-1068 -1072 0
-1068 -1073 0
-1068 -1074 0
-1068 -1075 0
-1068 -1076 0
-1069 -1070 0
-1069 -1071 0
-1069 -1072 0
-1069 -1073 0
-1069 -1074 0
-1069 -1075 0
-1069 -1076 0
-1070 -1071 0
-1070 -1072 0
-1070 -1073 0
-1070 -1074 0
-1070 -1075 0
-1070 -1076 0
-1071 -1072 0
-1071 -1073 0
-1071 -1074 0
-1071 -1075 0
-1071 -1076 0
-1072 -1073 0
-1072 -1074 0
-1072 -1075 0
-1072 -1076 0
-1073 -1074 0
-1073 -1075 0
-1073 -1076 0
-1074 -1075 0
-1074 -1076 0
-1075 -1076 0
-992 6 1035 0
-992 -6 1034 0
-993 6 1036 0
-993 -6 1035 0
-994 6 1037 0
-994 -6 1036 0
-995 6 1038 0
-995 -6 1037 0
-996 6 1039 0
-996 -6 1038 0
-997 6 1040 0
-997 -6 1039 0
-998 6 1041 0
-998 -6 1040 0
-999 6 1042 0
-999 -6 1041 0
-1000 6 1043 0
-1000 -6 1042 0
-1001 6 1044 0
-1001 -6 1043 0
-1002 6 1045 0
-1002 -6 1044 0
-1003 6 1046 0
-1003 -6 1045 0
-1004 6 1047 0
-1004 -6 1046 0
-1005 6 1048 0
-1005 -6 1047 0
-1006 6 1049 0
-1006 -6 1048 0
-1007 6 1050 0
-1007 -6 1049 0
-1008 6 1051 0
-1008 -6 1050 0
-1009 6 1052 0
-1009 -6 1051 0
-1010 6 1053 0
-1010 -6 1052 0
-1011 6 1054 0
-1011 -6 1053 0
-1012 6 1055 0
-1012 -6 1054 0
-1013 6 1056 0
-1013 -6 1055 0
-1014 6 1057 0
-1014 -6 1056 0
-1015 6 1058 0
-1015 -6 1057 0
-1016 6 1059 0
-1016 -6 1058 0
-1017 6 1060 0
-1017 -6 1059 0
-1018 6 1061 0
-1018 -6 1060 0
-1019 6 1062 0
-1019 -6 1061 0
-1020 6 1063 0
-1020 -6 1062 0
-1021 6 1064 0
-1021 -6 1063 0
-1022 6 1065 0
-1022 -6 1064 0
-1023 6 1066 0
-1023 -6 1065 0
-1024 6 1067 0
-1024 -6 1066 0
-1025 6 1068 0
-1025 -6 1067 0
-1026 6 1069 0
-1026 -6 1068 0
-1027 6 1070 0
-1027 -6 1069 0
-1028 6 1071 0
-1028 -6 1070 0
-1029 6 1072 0
-1029 -6 1071 0
-1030 6 1073 0
-1030 -6 1072 0
-1031 6 1074 0
-1031 -6 1073 0
-1032 6 1075 0
-1032 -6 1074 0
-1033 6 1076 0
-1033 -6 1075 0
1077 1078 1079 1080 1081 1082 1083 1084 1085 1086 1087 1088 1089 1090 1091 1092 1093 1094 1095 1096 1097 1098 1099 1100 1101 1102 1103 1104 1105 1106 1107 1108 1109 1110 1111 1112 1113 1114 1115 1116 1117 1118 1119 1120 0
-1077 -1078 0
-1077 -1079 0
-1077 -1080 0
-1077 -1081 0
-1077 -1082 0
-1077 -1083 0
-1077 -1084 0
-1077 -1085 0
-1077 -1086 0
-1077 -1087 0
-1077 -1088 0
-1077 -1089 0
-1077 -1090 0
-1077 -1091 0
-1077 -1092 0
-1077 -1093 0
-1077 -1094 0
-1077 -1095 0
-1077 -1096 0
-1077 -1097 0
-1077 -1098 0
-1077 -1099 0
-1077 -1100 0
-1077 -1101 0
-1077 -1102 0
-1077 -1103 0
-1077 -1104 0
-1077 -1105 0
-1077 -1106 0
-1077 -1107 0
-1077 -1108 0
-1077 -1109 0
-1077 -1110 0
-1077 -1111 0
-1077 -1112 0
-1077 -1113 0
-1077 -1114 0
-1077 -1115 0
-1077 -1116 0
-1077 -1117 0
-1077 -1118 0
-1077 -1119 0
-1077 -1120 0
-1078 -1079 0
-1078 -1080 0
-1078 -1081 0
-1078 -1082 0
-1078 -1083 0
-1078 -1084 0
-1078 -1085 0
-1078 -1086 0
-1078 -1087 0
-1078 -1088 0
-1078 -1089 0
-1078 -1090 0
-1078 -1091 0
-1078 -1092 0
-1078 -1093 0
-1078 -1094 0
-1078 -1095 0
-1078 -1096 0
-1078 -1097 0
-1078 -1098 0
-1078 -1099 0
-1078 -1100 0
-1078 -1101 0
-1078 -1102 0
-1078 -1103 0
-1078 -1104 0
-1078 -1105 0
-1078 -1106 0
-1078 -1107 0
-1078 -1108 0
-1078 -1109 0
-1078 -1110 0
-1078 -1111 0
-1078 -1112 0
-1078 -1113 0
-1078 -1114 0
-1078 -1115 0
-1078 -1116 0
-1078 -1117 0
-1078 -1118 0
-1078 -1119 0
-1078 -1120 0
-1079 -1080 0
-1079 -1081 0
-1079 -1082 0
-1079 -1083 0
-1079 -1084 0
-1079 -1085 0
-1079 -1086 0
-1079 -1087 0
-1079 -1088 0
-1079 -1089 0
-1079 -1090 0
-1079 -1091 0
-1079 -1092 0
-1079 -1093 0
-1079 -1094 0
-1079 -1095 0
-1079 -1096 0
-1079 -1097 0
-1079 -1098 0
-1079 -1099 0
-1079 -1100 0
-1079 -1101 0
-1079 -1102 0
-1079 -1103 0
-1079 -1104 0
-1079 -1105 0
-1079 -1106 0
-1079 -1107 0
-1079 -1108 0
-1079 -1109 0
-1079 -1110 0
-1079 -1111 0
-1079 -1112 0
-1079 -1113 0
-1079 -1114 0
-1079 -1115 0
-1079 -1116 0
-1079 -1117 0
-1079 -1118 0
-1079 -1119 0
-1079 -1120 0
-1080 -1081 0
-1080 -1082 0
-1080 -1083 0
-1080 -1084 0
-1080 -1085 0
-1080 -1086 0
-1080 -1087 0
-1080 -1088 0
-1080 -1089 0
-1080 -1090 0
-1080 -1091 0
-1080 -1092 0
-1080 -1093 0
-1080 -1094 0
-1080 -1095 0
-1080 -1096 0
-1080 -1097 0
-1080 -1098 0
-1080 -1099 0
-1080 -1100 0
-1080 -1101 0
-1080 -1102 0
-1080 -1103 0
-1080 -1104 0
-1080 -1105 0
-1080 -1106 0
-1080 -1107 0
-1080 -1108 0
-1080 -1109 0
-1080 -1110 0
-1080 -1111 0
-1080 -1112 0
-1080 -1113 0
-1080 -1114 0
-1080 -1115 0
-1080 -1116 0
-1080 -1117 0
-1080 -1118 0
-1080 -1119 0
-1080 -1120 0
-1081 -1082 0
-1081 -1083 0
-1081 -1084 0
-1081 -1085 0
-1081 -1086 0
-1081 -1087 0
-1081 -1088 0
-1081 -1089 0
-1081 -1090 0
-1081 -1091 0
-1081 -1092 0
-1081 -1093 0
-1081 -1094 0
-1081 -1095 0
-1081 -1096 0
-1081 -1097 0
-1081 -1098 0
-1081 -1099 0
-1081 -1100 0
-1081 -1101 0
-1081 -1102 0
-1081 -1103 0
-1081 -1104 0
-1081 -1105 0
-1081 -1106 0
-1081 -1107 0
-1081 -1108 0
-1081 -1109 0
-1081 -1110 0
-1081 -1111 0
-1081 -1112 0
-1081 -1113 0
-1081 -1114 0
-1081 -1115 0
-1081 -1116 0
-1081 -1117 0
-1081 -1118 0
-1081 -1119 0
-1081 -1120 0
-1082 -1083 0
-1082 -1084 0
-1082 -1085 0
-1082 -1086 0
-1082 -1087 0
-1082 -1088 0
-1082 -1089 0
-1082 -1090 0
-1082 -1091 0
-1082 -1092 0
-1082 -1093 0
-1082 -1094 0
-1082 -1095 0
-1082 -1096 0
-1082 -1097 0
-1082 -1098 0
-1082 -1099 0
-1082 -1100 0
-1082 -1101 0
-1082 -1102 0
-1082 -1103 0
-1082 -1104 0
-1082 -1105 0
-1082 -1106 0
-1082 -1107 0
-1082 -1108 0
-1082 -1109 0
-1082 -1110 0
-1082 -1111 0
-1082 -1112 0
-1082 -1113 0
-1082 -1114 0
-1082 -1115 0
-1082 -1116 0
-1082 -1117 0
-1082 -1118 0
-1082 -1119 0
-1082 -1120 0
-1083 -1084 0
-1083 -1085 0
-1083 -1086 0
-1083 -1087 0
-1083 -1088 0
-1083 -1089 0
-1083 -1090 0
-1083 -1091 0
-1083 -1092 0
-1083 -1093 0
-1083 -1094 0
-1083 -1095 0
-1083 -1096 0
-1083 -1097 0
-1083 -1098 0
-1083 -1099 0
-1083 -1100 0
-1083 -1101 0
-1083 -1102 0
-1083 -1103 0
-1083 -1104 0
-1083 -1105 0
-1083 -1106 0
-1083 -1107 0
-1083 -1108 0
-1083 -1109 0
-1083 -1110 0
-1083 -1111 0
-1083 -1112 0
-1083 -1113 0
-1083 -1114 0
-1083 -1115 0
-1083 -1116 0
-1083 -1117 0
-1083 -1118 0
-1083 -1119 0
-1083 -1120 0
-1084 -1085 0
-1084 -1086 0
-1084 -1087 0
-1084 -1088 0
-1084 -1089 0
-1084 -1090 0
-1084 -1091 0
-1084 -1092 0
-1084 -1093 0
-1084 -1094 0
-1084 -1095 0
-1084 -1096 0
-1084 -1097 0
-1084 -1098 0
-1084 -1099 0
-1084 -1100 0
-1084 -1101 0
-1084 -1102 0
-1084 -1103 0
-1084 -1104 0
-1084 -1105 0
-1084 -1106 0
-1084 -1107 0
-1084 -1108 0
-1084 -1109 0
-1084 -1110 0
-1084 -1111 0
-1084 -1112 0
-1084 -1113 0
-1084 -1114 0
-1084 -1115 0
-1084 -1116 0
-1084 -1117 0
-1084 -1118 0
-1084 -1119 0
-1084 -1120 0
-1085 -1086 0
-1085 -1087 0
-1085 -1088 0
-1085 -1089 0
-1085 -1090 0
-1085 -1091 0
-1085 -1092 0
-1085 -1093 0
-1085 -1094 0
-1085 -1095 0
-1085 -1096 0
-1085 -1097 0
-1085 -1098 0
-1085 -1099 0
-1085 -1100 0
-1085 -1101 0
-1085 -1102 0
-1085 -1103 0
-1085 -1104 0
-1085 -1105 0
-1085 -1106 0
-1085 -1107 0
-1085 -1108 0
-1085 -1109 0
-1085 -1110 0
-1085 -1111 0
-1085 -1112 0
-1085 -1113 0
-1085 -1114 0
-1085 -1115 0
-1085 -1116 0
-1085 -1117 0
-1085 -1118 0
-1085 -1119 0
-1085 -1120 0
-1086 -1087 0
-1086 -1088 0
-1086 -1089 0
-1086 -1090 0
-1086 -1091 0
-1086 -1092 0
-1086 -1093 0
-1086 -1094 0
-1086 -1095 0
-1086 -1096 0
-1086 -1097 0
-1086 -1098 0
-1086 -1099 0
-1086 -1100 0
-1086 -1101 0
-1086 -1102 0
-1086 -1103 0
-1086 -1104 0
-1086 -1105 0
-1086 -1106 0
-1086 -1107 0
-1086 -1108 0
-1086 -1109 0
-1086 -1110 0
-1086 -1111 0
-1086 -1112 0
-1086 -1113 0
-1086 -1114 0
-1086 -1115 0
-1086 -1116 0
-1086 -1117 0
-1086 -1118 0
-1086 -1119 0
-1086 -1120 0
-1087 -1088 0
-1087 -1089 0
-1087 -1090 0
-1087 -1091 0
-1087 -1092 0
-1087 -1093 0
-1087 -1094 0
-1087 -1095 0
-1087 -1096 0
-1087 -1097 0
-1087 -1098 0
-1087 -1099 0
-1087 -1100 0
-1087 -1101 0
-1087 -1102 0
-1087 -1103 0
-1087 -1104 0
-1087 -1105 0
-1087 -1106 0
-1087 -1107 0
-1087 -1108 0
-1087 -1109 0
-1087 -1110 0
-1087 -1111 0
-1087 -1112 0
-1087 -1113 0
-1087 -1114 0
-1087 -1115 0
-1087 -1116 0
-1087 -1117 0
-1087 -1118 0
-1087 -1119 0
-1087 -1120 0
-1088 -1089 0
-1088 -1090 0
-1088 -1091 0
-1088 -1092 0
-1088 -1093 0
-1088 -1094 0
-1088 -1095 0
-1088 -1096 0
-1088 -1097 0
-1088 -1098 0
-1088 -1099 0
-1088 -1100 0
-1088 -1101 0
-1088 -1102 0
-1088 -1103 0
-1088 -1104 0
-1088 -1105 0
-1088 -1106 0
-1088 -1107 0
-1088 -1108 0
-1088 -1109 0
-1088 -1110 0
-1088 -1111 0
-1088 -1112 0
-1088 -1113 0
-1088 -1114 0
-1088 -1115 0
-1088 -1116 0
-1088 -1117 0
-1088 -1118 0
-1088 -1119 0
-1088 -1120 0
-1089 -1090 0
-1089 -1091 0
-1089 -1092 0
-1089 -1093 0
-1089 -1094 0
-1089 -1095 0
-1089 -1096 0
-1089 -1097 0
-1089 -1098 0
-1089 -1099 0
-1089 -1100 0
-1089 -1101 0
-1089 -1102 0
-1089 -1103 0
-1089 -1104 0
-1089 -1105 0
-1089 -1106 0
-1089 -1107 0
-1089 -1108 0
-1089 -1109 0
-1089 -1110 0
-1089 -1111 0
-1089 -1112 0
-1089 -1113 0
-1089 -1114 0
-1089 -1115 0
-1089 -1116 0
-1089 -1117 0
-1089 -1118 0
-1089 -1119 0
-1089 -1120 0
-1090 -1091 0
-1090 -1092 0
-1090 -1093 0
-1090 -1094 0
-1090 -1095 0
-1090 -1096 0
-1090 -1097 0
-1090 -1098 0
-1090 -1099 0
-1090 -1100 0
-1090 -1101 0
-1090 -1102 0
-1090 -1103 0
-1090 -1104 0
-1090 -1105 0
-1090 -1106 0
-1090 -1107 0
-1090 -1108 0
-1090 -1109 0
-1090 -1110 0
-1090 -1111 0
-1090 -1112 0
-1090 -1113 0
-1090 -1114 0
-1090 -1115 0
-1090 -1116 0
-1090 -1117 0
-1090 -1118 0
-1090 -1119 0
-1090 -1120 0
-1091 -1092 0
-1091 -1093 0
-1091 -1094 0
-1091 -1095 0
-1091 -1096 0
-1091 -1097 0
-1091 -1098 0
-1091 -1099 0
-1091 -1100 0
-1091 -1101 0
-1091 -1102 0
-1091 -1103 0
-1091 -1104 0
-1091 -1105 0
-1091 -1106 0
-1091 -1107 0
-1091 -1108 0
-1091 -1109 0
-1091 -1110 0
-1091 -1111 0
-1091 -1112 0
-1091 -1113 0
-1091 -1114 0
-1091 -1115 0
-1091 -1116 0
-1091 -1117 0
-1091 -1118 0
-1091 -1119 0
-1091 -1120 0
-1092 -1093 0
-1092 -1094 0
-1092 -1095 0
-1092 -1096 0
-1092 -1097 0
-1092 -1098 0
-1092 -1099 0
-1092 -1100 0
-1092 -1101 0
-1092 -1102 0
-1092 -1103 0
-1092 -1104 0
-1092 -1105 0
-1092 -1106 0
-1092 -1107 0
-1092 -1108 0
-1092 -1109 0
-1092 -1110 0
-1092 -1111 0
-1092 -1112 0
-1092 -1113 0
-1092 -1114 0
-1092 -1115 0
-1092 -1116 0
-1092 -1117 0
-1092 -1118 0
-1092 -1119 0
-1092 -1120 0
-1093 -1094 0
-1093 -1095 0
-1093 -1096 0
-1093 -1097 0
-1093 -1098 0
-1093 -1099 0
-1093 -1100 0
-1093 -1101 0
-1093 -1102 0
-1093 -1103 0
-1093 -1104 0
-1093 -1105 0
-1093 -1106 0
-1093 -1107 0
-1093 -1108 0
-1093 -1109 0
-1093 -1110 0
-1093 -1111 0
-1093 -1112 0
-1093 -1113 0
-1093 -1114 0
-1093 -1115 0
-1093 -1116 0
-1093 -1117 0
-1093 -1118 0
-1093 -1119 0
-1093 -1120 0
-1094 -1095 0
-1094 -1096 0
-1094 -1097 0
-1094 -1098 0
-1094 -1099 0
-1094 -1100 0
-1094 -1101 0
-1094 -1102 0
-1094 -1103 0
-1094 -1104 0
-1094 -1105 0
-1094 -1106 0
-1094 -1107 0
-1094 -1108 0
-1094 -1109 0
-1094 -1110 0
-1094 -1111 0
-1094 -1112 0
-1094 -1113 0
-1094 -1114 0
-1094 -1115 0
-1094 -1116 0
-1094 -1117 0
-1094 -1118 0
-1094 -1119 0
-1094 -1120 0
-1095 -1096 0
-1095 -1097 0
-1095 -1098 0
-1095 -1099 0
-1095 -1100 0
-1095 -1101 0
-1095 -1102 0
-1095 -1103 0
-1095 -1104 0
-1095 -1105 0
-1095 -1106 0
-1095 -1107 0
-1095 -1108 0
-1095 -1109 0
-1095 -1110 0
-1095 -1111 0
-1095 -1112 0
-1095 -1113 0
-1095 -1114 0
-1095 -1115 0
-1095 -1116 0
-1095 -1117 0
-1095 -1118 0
-1095 -1119 0
-1095 -1120 0
-1096 -1097 0
-1096 -1098 0
-1096 -1099 0
-1096 -1100 0
-1096 -1101 0
-1096 -1102 0
-1096 -1103 0
-1096 -1104 0
-1096 -1105 0
-1096 -1106 0
-1096 -1107 0
-1096 -1108 0
-1096 -1109 0
-1096 -1110 0
-1096 -1111 0
-1096 -1112 0
-1096 -1113 0
-1096 -1114 0
-1096 -1115 0
-1096 -1116 0
-1096 -1117 0
-1096 -1118 0
-1096 -1119 0
-1096 -1120 0
-1097 -1098 0
-1097 -1099 0
-1097 -1100 0
-1097 -1101 0
-1097 -1102 0
-1097 -1103 0
-1097 -1104 0
-1097 -1105 0
-1097 -1106 0
-1097 -1107 0
-1097 -1108 0
-1097 -1109 0
-1097 -1110 0
-1097 -1111 0
-1097 -1112 0
-1097 -1113 0
-1097 -1114 0
-1097 -1115 0
-1097 -1116 0
-1097 -1117 0
-1097 -1118 0
-1097 -1119 0
-1097 -1120 0
-1098 -1099 0
-1098 -1100 0
-1098 -1101 0
-1098 -1102 0
-1098 -1103 0
-1098 -1104 0
-1098 -1105 0
-1098 -1106 0
-1098 -1107 0
-1098 -1108 0
-1098 -1109 0
-1098 -1110 0
-1098 -1111 0
-1098 -1112 0
-1098 -1113 0
-1098 -1114 0
-1098 -1115 0
-1098 -1116 0
-1098 -1117 0
-1098 -1118 0
-1098 -1119 0
-1098 -1120 0
-1099 -1100 0
-1099 -1101 0
-1099 -1102 0
-1099 -1103 0
-1099 -1104 0
-1099 -1105 0
-1099 -1106 0
-1099 -1107 0
-1099 -1108 0
-1099 -1109 0
-1099 -1110 0
-1099 -1111 0
-1099 -1112 0
-1099 -1113 0
-1099 -1114 0
-1099 -1115 0
-1099 -1116 0
-1099 -1117 0
-1099 -1118 0
-1099 -1119 0
-1099 -1120 0
-1100 -1101 0
-1100 -1102 0
-1100 -1103 0
-1100 -1104 0
-1100 -1105 0
-1100 -1106 0
-1100 -1107 0
-1100 -1108 0
-1100 -1109 0
-1100 -1110 0
-1100 -1111 0
-1100 -1112 0
-1100 -1113 0
-1100 -1114 0
-1100 -1115 0
-1100 -1116 0
-1100 -1117 0
-1100 -1118 0
-1100 -1119 0
-1100 -1120 0
-1101 -1102 0
-1101 -1103 0
-1101 -1104 0
-1101 -1105 0
-1101 -1106 0
-1101 -1107 0
-1101 -1108 0
-1101 -1109 0
-1101 -1110 0
-1101 -1111 0
-1101 -1112 0
-1101 -1113 0
-1101 -1114 0
-1101 -1115 0
-1101 -1116 0
-1101 -1117 0
-1101 -1118 0
-1101 -1119 0
-1101 -1120 0
-1102 -1103 0
-1102 -1104 0
-1102 -1105 0
-1102 -1106 0
-1102 -1107 0
-1102 -1108 0
-1102 -1109 0
-1102 -1110 0
-1102 -1111 0
-1102 -1112 0
-1102 -1113 0
-1102 -1114 0
-1102 -1115 0
-1102 -1116 0
-1102 -1117 0
-1102 -1118 0
-1102 -1119 0
-1102 -1120 0
-1103 -1104 0
-1103 -1105 0
-1103 -1106 0
-1103 -1107 0
-1103 -1108 0
-1103 -1109 0
-1103 -1110 0
-1103 -1111 0
-1103 -1112 0
-1103 -1113 0
-1103 -1114 0
-1103 -1115 0
-1103 -1116 0
-1103 -1117 0
-1103 -1118 0
-1103 -1119 0
-1103 -1120 0
-1104 -1105 0
-1104 -1106 0
-1104 -1107 0
-1104 -1108 0
-1104 -1109 0
-1104 -1110 0
-1104 -1111 0
-1104 -1112 0
-1104 -1113 0
-1104 -1114 0
-1104 -1115 0
-1104 -1116 0
-1104 -1117 0
-1104 -1118 0
-1104 -1119 0
-1104 -1120 0
-1105 -1106 0
-1105 -1107 0
-1105 -1108 0
-1105 -1109 0
-1105 -1110 0
-1105 -1111 0
-1105 -1112 0
-1105 -1113 0
-1105 -1114 0
-1105 -1115 0
-1105 -1116 0
-1105 -1117 0
-1105 -1118 0
-1105 -1119 0
-1105 -1120 0
-1106 -1107 0
-1106 -1108 0
-1106 -1109 0
-1106 -1110 0
-1106 -1111 0
-1106 -1112 0
-1106 -1113 0
-1106 -1114 0
-1106 -1115 0
-1106 -1116 0
-1106 -1117 0
-1106 -1118 0
-1106 -1119 0
-1106 -1120 0
-1107 -1108 0
-1107 -1109 0
-1107 -1110 0
-1107 -1111 0
-1107 -1112 0
-1107 -1113 0
-1107 -1114 0
-1107 -1115 0
-1107 -1116 0
-1107 -1117 0
-1107 -1118 0
-1107 -1119 0
-1107 -1120 0
-1108 -1109 0
-1108 -1110 0
-1108 -1111 0
-1108 -1112 0
-1108 -1113 0
-1108 -1114 0
-1108 -1115 0
-1108 -1116 0
-1108 -1117 0
-1108 -1118 0
-1108 -1119 0
-1108 -1120 0
-1109 -1110 0
-1109 -1111 0
-1109 -1112 0
-1109 -1113 0
-1109 -1114 0
-1109 -1115 0
-1109 -1116 0
-1109 -1117 0
-1109 -1118 0
-1109 -1119 0
-1109 -1120 0
-1110 -1111 0
-1110 -1112 0
-1110 -1113 0
-1110 -1114 0
-1110 -1115 0
-1110 -1116 0
-1110 -1117 0
-1110 -1118 0
-1110 -1119 0
-1110 -1120 0
-1111 -1112 0
-1111 -1113 0
-1111 -1114 0
-1111 -1115 0
-1111 -1116 0
-1111 -1117 0
-1111 -1118 0
-1111 -1119 0
-1111 -1120 0
-1112 -1113 0
-1112 -1114 0
-1112 -1115 0
-1112 -1116 0
-1112 -1117 0
-1112 -1118 0
-1112 -1119 0
-1112 -1120 0
-1113 -1114 0
-1113 -1115 0
-1113 -1116 0
-1113 -1117 0
-1113 -1118 0
-1113 -1119 0
-1113 -1120 0
-1114 -1115 0
-1114 -1116 0
-1114 -1117 0
-1114 -1118 0
-1114 -1119 0
-1114 -1120 0
-1115 -1116 0
-1115 -1117 0
-1115 -1118 0
-1115 -1119 0
-1115 -1120 0
-1116 -1117 0
-1116 -1118 0
-1116 -1119 0
-1116 -1120 0
-1117 -1118 0
-1117 -1119 0
-1117 -1120 0
-1118 -1119 0
-1118 -1120 0
-1119 -1120 0
-1034 9 1078 0
-1034 -9 1077 0
-1035 9 1079 0
-1035 -9 1078 0
-1036 9 1080 0
-1036 -9 1079 0
-1037 9 1081 0
-1037 -9 1080 0
-1038 9 1082 0
-1038 -9 1081 0
-1039 9 1083 0
-1039 -9 1082 0
-1040 9 1084 0
-1040 -9 1083 0
-1041 9 1085 0
-1041 -9 1084 0
-1042 9 1086 0
-1042 -9 1085 0
-1043 9 1087 0
-1043 -9 1086 0
-1044 9 1088 0
-1044 -9 1087 0
-1045 9 1089 0
-1045 -9 1088 0
-1046 9 1090 0
-1046 -9 1089 0
-1047 9 1091 0
-1047 -9 1090 0
-1048 9 1092 0
-1048 -9 1091 0
-1049 9 1093 0
-1049 -9 1092 0
-1050 9 1094 0
-1050 -9 1093 0
-1051 9 1095 0
-1051 -9 1094 0
-1052 9 1096 0
-1052 -9 1095 0
-1053 9 1097 0
-1053 -9 1096 0
-1054 9 1098 0
-1054 -9 1097 0
-1055 9 1099 0
-1055 -9 1098 0
-1056 9 1100 0
-1056 -9 1099 0
-1057 9 1101 0
-1057 -9 1100 0
-1058 9 1102 0
-1058 -9 1101 0
-1059 9 1103 0
-1059 -9 1102 0
-1060 9 1104 0
-1060 -9 1103 0
-1061 9 1105 0
-1061 -9 1104 0
-1062 9 1106 0
-1062 -9 1105 0
-1063 9 1107 0
-1063 -9 1106 0
-1064 9 1108 0
-1064 -9 1107 0
-1065 9 1109 0
-1065 -9 1108 0
-1066 9 1110 0
-1066 -9 1109 0
-1067 9 1111 0
-1067 -9 1110 0
-1068 9 1112 0
-1068 -9 1111 0
-1069 9 1113 0
-1069 -9 1112 0
-1070 9 1114 0
-1070 -9 1113 0
-1071 9 1115 0
-1071 -9 1114 0
-1072 9 1116 0
-1072 -9 1115 0
-1073 9 1117 0
-1073 -9 1116 0
-1074 9 1118 0
-1074 -9 1117 0
-1075 9 1119 0
-1075 -9 1118 0
-1076 9 1120 0
-1076 -9 1119 0
1121 1122 1123 1124 1125 1126 1127 1128 1129 1130 1131 1132 1133 1134 1135 1136 1137 1138 1139 1140 1141 1142 1143 1144 1145 1146 1147 1148 1149 1150 1151 1152 1153 1154 1155 1156 1157 1158 1159 1160 1161 1162 1163 1164 1165 0
-1121 -1122 0
-1121 -1123 0
-1121 -1124 0
-1121 -1125 0
-1121 -1126 0
-1121 -1127 0
-1121 -1128 0
-1121 -1129 0
-1121 -1130 0
-1121 -1131 0
-1121 -1132 0
-1121 -1133 0
-1121 -1134 0
-1121 -1135 0
-1121 -1136 0
-1121 -1137 0
-1121 -1138 0
-1121 -1139 0
-1121 -1140 0
-1121 -1141 0
-1121 -1142 0
-1121 -1143 0
-1121 -1144 0
-1121 -1145 0
-1121 -1146 0
-1121 -1147 0
-1121 -1148 0
-1121 -1149 0
-1121 -1150 0
-1121 -1151 0
-1121 -1152 0
-1121 -1153 0
-1121 -1154 0
-1121 -1155 0
-1121 -1156 0
-1121 -1157 0
-1121 -1158 0
-1121 -1159 0
-1121 -1160 0
-1121 -1161 0
-1121 -1162 0
-1121 -1163 0
-1121 -1164 0
-1121 -1165 0
-1122 -1123 0
-1122 -1124 0
-1122 -1125 0
-1122 -1126 0
-1122 -1127 0
-1122 -1128 0
-1122 -1129 0
-1122 -1130 0
-1122 -1131 0
-1122 -1132 0
-1122 -1133 0
-1122 -1134 0
-1122 -1135 0
-1122 -1136 0
-1122 -1137 0
-1122 -1138 0
-1122 -1139 0
-1122 -1140 0
-1122 -1141 0
-1122 -1142 0
-1122 -1143 0
-1122 -1144 0
-1122 -1145 0
-1122 -1146 0
-1122 -1147 0
-1122 -1148 0
-1122 -1149 0
-1122 -1150 0
-1122 -1151 0
-1122 -1152 0
-1122 -1153 0
-1122 -1154 0
-1122 -1155 0
-1122 -1156 0
-1122 -1157 0
-1122 -1158 0
-1122 -1159 0
-1122 -1160 0
-1122 -1161 0
-1122 -1162 0
-1122 -1163 0
-1122 -1164 0
-1122 -1165 0
-1123 -1124 0
-1123 -1125 0
-1123 -1126 0
-1123 -1127 0
-1123 -1128 0
-1123 -1129 0
-1123 -1130 0
-1123 -1131 0
-1123 -1132 0
-1123 -1133 0
-1123 -1134 0
-1123 -1135 0
-1123 -1136 0
-1123 -1137 0
-1123 -1138 0
-1123 -1139 0
-1123 -1140 0
-1123 -1141 0
-1123 -1142 0
-1123 -1143 0
-1123 -1144 0
-1123 -1145 0
-1123 -1146 0
-1123 -1147 0
-1123 -1148 0
-1123 -1149 0
-1123 -1150 0
-1123 -1151 0
-1123 -1152 0
-1123 -1153 0
-1123 -1154 0
-1123 -1155 0
-1123 -1156 0
-1123 -1157 0
-1123 -1158 0
-1123 -1159 0
-1123 -1160 0
-1123 -1161 0
-1123 -1162 0
-1123 -1163 0
-1123 -1164 0
-1123 -1165 0
-1124 -1125 0
-1124 -1126 0
-1124 -1127 0
-1124 -1128 0
-1124 -1129 0
-1124 -1130 0
-1124 -1131 0
-1124 -1132 0
-1124 -1133 0
-1124 -1134 0
-1124 -1135 0
-1124 -1136 0
-1124 -1137 0
-1124 -1138 0
-1124 -1139 0
-1124 -1140 0
-1124 -1141 0
-1124 -1142 0
-1124 -1143 0
-1124 -1144 0
-1124 -1145 0
-1124 -1146 0
-1124 -1147 0
-1124 -1148 0
-1124 -1149 0
-1124 -1150 0
-1124 -1151 0
-1124 -1152 0
-1124 -1153 0
-1124 -1154 0
-1124 -1155 0
-1124 -1156 0
-1124 -1157 0
-1124 -1158 0
-1124 -1159 0
-1124 -1160 0
-1124 -1161 0
-1124 -1162 0
-1124 -1163 0
-1124 -1164 0
-1124 -1165 0
-1125 -1126 0
-1125 -1127 0
-1125 -1128 0
-1125 -1129 0
-1125 -1130 0
-1125 -1131 0
-1125 -1132 0
-1125 -1133 0
-1125 -1134 0
-1125 -1135 0
-1125 -1136 0
-1125 -1137 0
-1125 -1138 0
-1125 -1139 0
-1125 -1140 0
-1125 -1141 0
-1125 -1142 0
-1125 -1143 0
-1125 -1144 0
-1125 -1145 0
-1125 -1146 0
-1125 -1147 0
-1125 -1148 0
-1125 -1149 0
-1125 -1150 0
-1125 -1151 0
-1125 -1152 0
-1125 -1153 0
-1125 -1154 0
-1125 -1155 0
-1125 -1156 0
-1125 -1157 0
-1125 -1158 0
-1125 -1159 0
-1125 -1160 0
-1125 -1161 0
-1125 -1162 0
-1125 -1163 0
-1125 -1164 0
-1125 -1165 0
-1126 -1127 0
-1126 -1128 0
-1126 -1129 0
-1126 -1130 0
-1126 -1131 0
-1126 -1132 0
-1126 -1133 0
-1126 -1134 0
-1126 -1135 0
-1126 -1136 0
-1126 -1137 0
-1126 -1138 0
-1126 -1139 0
-1126 -1140 0
-1126 -1141 0
-1126 -1142 0
-1126 -1143 0
-1126 -1144 0
-1126 -1145 0
-1126 -1146 0
-1126 -1147 0
-1126 -1148 0
-1126 -1149 0
-1126 -1150 0
-1126 -1151 0
-1126 -1152 0
-1126 -1153 0
-1126 -1154 0
-1126 -1155 0
-1126 -1156 0
-1126 -1157 0
-1126 -1158 0
-1126 -1159 0
-1126 -1160 0
-1126 -1161 0
-1126 -1162 0
-1126 -1163 0
-1126 -1164 0
-1126 -1165 0
-1127 -1128 0
-1127 -1129 0
-1127 -1130 0
-1127 -1131 0
-1127 -1132 0
-1127 -1133 0
-1127 -1134 0
-1127 -1135 0
-1127 -1136 0
-1127 -1137 0
-1127 -1138 0
-1127 -1139 0
-1127 -1140 0
-1127 -1141 0
-1127 -1142 0
-1127 -1143 0
-1127 -1144 0
-1127 -1145 0
-1127 -1146 0
-1127 -1147 0
-1127 -1148 0
-1127 -1149 0
-1127 -1150 0
-1127 -1151 0
-1127 -1152 0
-1127 -1153 0
-1127 -1154 0
-1127 -1155 0
-1127 -1156 0
-1127 -1157 0
-1127 -1158 0
-1127 -1159 0
-1127 -1160 0
-1127 -1161 0
-1127 -1162 0
-1127 -1163 0
-1127 -1164 0
-1127 -1165 0
-1128 -1129 0
-1128 -1130 0
-1128 -1131 0
-1128 -1132 0
-1128 -1133 0
-1128 -1134 0
-1128 -1135 0
-1128 -1136 0
-1128 -1137 0
-1128 -1138 0
-1128 -1139 0
-1128 -1140 0
-1128 -1141 0
-1128 -1142 0
-1128 -1143 0
-1128 -1144 0
-1128 -1145 0
-1128 -1146 0
-1128 -1147 0
-1128 -1148 0
-1128 -1149 0
-1128 -1150 0
-1128 -1151 0
-1128 -1152 0
-1128 -1153 0
-1128 -1154 0
-1128 -1155 0
-1128 -1156 0
-1128 -1157 0
-1128 -1158 0
-1128 -1159 0
-1128 -1160 0
-1128 -1161 0
-1128 -1162 0
-1128 -1163 0
-1128 -1164 0
-1128 -1165 0
-1129 -1130 0
-1129 -1131 0
-1129 -1132 0
-1129 -1133 0
-1129 -1134 0
-1129 -1135 0
-1129 -1136 0
-1129 -1137 0
-1129 -1138 0
-1129 -1139 0
-1129 -1140 0
-1129 -1141 0
-1129 -1142 0
-1129 -1143 0
-1129 -1144 0
-1129 -1145 0
-1129 -1146 0
-1129 -1147 0
-1129 -1148 0
-1129 -1149 0
-1129 -1150 0
-1129 -1151 0
-1129 -1152 0
-1129 -1153 0
-1129 -1154 0
-1129 -1155 0
-1129 -1156 0
-1129 -1157 0
-1129 -1158 0
-1129 -1159 0
-1129 -1160 0
-1129 -1161 0
-1129 -1162 0
-1129 -1163 0
-1129 -1164 0
-1129 -1165 0
-1130 -1131 0
-1130 -1132 0
-1130 -1133 0
-1130 -1134 0
-1130 -1135 0
-1130 -1136 0
-1130 -1137 0
-1130 -1138 0
-1130 -1139 0
-1130 -1140 0
-1130 -1141 0
-1130 -1142 0
-1130 -1143 0
-1130 -1144 0
-1130 -1145 0
-1130 -1146 0
-1130 -1147 0
-1130 -1148 0
-1130 -1149 0
-1130 -1150 0
-1130 -1151 0
-1130 -1152 0
-1130 -1153 0
-1130 -1154 0
-1130 -1155 0
-1130 -1156 0
-1130 -1157 0
-1130 -1158 0
-1130 -1159 0
-1130 -1160 0
-1130 -1161 0
-1130 -1162 0
-1130 -1163 0
-1130 -1164 0
-1130 -1165 0
-1131 -1132 0
-1131 -1133 0
-1131 -1134 0
-1131 -1135 0
-1131 -1136 0
-1131 -1137 0
-1131 -1138 0
-1131 -1139 0
-1131 -1140 0
-1131 -1141 0
-1131 -1142 0
-1131 -1143 0
-1131 -1144 0
-1131 -1145 0
-1131 -1146 0
-1131 -1147 0
-1131 -1148 0
-1131 -1149 0
-1131 -1150 0
-1131 -1151 0
-1131 -1152 0
-1131 -1153 0
-1131 -1154 0
-1131 -1155 0
-1131 -1156 0
-1131 -1157 0
-1131 -1158 0
-1131 -1159 0
-1131 -1160 0
-1131 -1161 0
-1131 -1162 0
-1131 -1163 0
-1131 -1164 0
-1131 -1165 0
-1132 -1133 0
-1132 -1134 0
-1132 -1135 0
-1132 -1136 0
-1132 -1137 0
-1132 -1138 0
-1132 -1139 0
-1132 -1140 0
-1132 -1141 0
-1132 -1142 0
-1132 -1143 0
-1132 -1144 0
-1132 -1145 0
-1132 -1146 0
-1132 -1147 0
-1132 -1148 0
-1132 -1149 0
-1132 -1150 0
-1132 -1151 0
-1132 -1152 0
-1132 -1153 0
-1132 -1154 0
-1132 -1155 0
-1132 -1156 0
-1132 -1157 0
-1132 -1158 0
-1132 -1159 0
-1132 -1160 0
-1132 -1161 0
-1132 -1162 0
-1132 -1163 0
-1132 -1164 0
-1132 -1165 0
-1133 -1134 0
-1133 -1135 0
-1133 -1136 0
-1133 -1137 0
-1133 -1138 0
-1133 -1139 0
-1133 -1140 0
-1133 -1141 0
-1133 -1142 0
-1133 -1143 0
-1133 -1144 0
-1133 -1145 0
-1133 -1146 0
-1133 -1147 0
-1133 -1148 0
-1133 -1149 0
-1133 -1150 0
-1133 -1151 0
-1133 -1152 0
-1133 -1153 0
-1133 -1154 0
-1133 -1155 0
-1133 -1156 0
-1133 -1157 0
-1133 -1158 0
-1133 -1159 0
-1133 -1160 0
-1133 -1161 0
-1133 -1162 0
-1133 -1163 0
-1133 -1164 0
-1133 -1165 0
-1134 -1135 0
-1134 -1136 0
-1134 -1137 0
-1134 -1138 0
-1134 -1139 0
-1134 -1140 0
-1134 -1141 0
-1134 -1142 0
-1134 -1143 0
-1134 -1144 0
-1134 -1145 0
-1134 -1146 0
-1134 -1147 0
-1134 -1148 0
-1134 -1149 0
-1134 -1150 0
-1134 -1151 0
-1134 -1152 0
-1134 -1153 0
-1134 -1154 0
-1134 -1155 0
-1134 -1156 0
-1134 -1157 0
-1134 -1158 0
-1134 -1159 0
-1134 -1160 0
-1134 -1161 0
-1134 -1162 0
-1134 -1163 0
-1134 -1164 0
-1134 -1165 0
-1135 -1136 0
-1135 -1137 0
-1135 -1138 0
-1135 -1139 0
-1135 -1140 0
-1135 -1141 0
-1135 -1142 0
-1135 -1143 0
-1135 -1144 0
-1135 -1145 0
-1135 -1146 0
-1135 -1147 0
-1135 -1148 0
-1135 -1149 0
-1135 -1150 0
-1135 -1151 0
-1135 -1152 0
-1135 -1153 0
-1135 -1154 0
-1135 -1155 0
-1135 -1156 0
-1135 -1157 0
-1135 -1158 0
-1135 -1159 0
-1135 -1160 0
-1135 -1161 0
-1135 -1162 0
-1135 -1163 0
-1135 -1164 0
-1135 -1165 0
-1136 -1137 0
-1136 -1138 0
-1136 -1139 0
-1136 -1140 0
-1136 -1141 0
-1136 -1142 0
-1136 -1143 0
-1136 -1144 0
-1136 -1145 0
-1136 -1146 0
-1136 -1147 0
-1136 -1148 0
-1136 -1149 0
-1136 -1150 0
-1136 -1151 0
-1136 -1152 0
-1136 -1153 0
-1136 -1154 0
-1136 -1155 0
-1136 -1156 0
-1136 -1157 0
-1136 -1158 0
-1136 -1159 0
-1136 -1160 0
-1136 -1161 0
-1136 -1162 0
-1136 -1163 0
-1136 -1164 0
-1136 -1165 0
-1137 -1138 0
-1137 -1139 0
-1137 -1140 0
-1137 -1141 0
-1137 -1142 0
-1137 -1143 0
-1137 -1144 0
-1137 -1145 0
-1137 -1146 0
-1137 -1147 0
-1137 -1148 0
-1137 -1149 0
-1137 -1150 0
-1137 -1151 0
-1137 -1152 0
-1137 -1153 0
-1137 -1154 0
-1137 -1155 0
-1137 -1156 0
-1137 -1157 0
-1137 -1158 0
-1137 -1159 0
-1137 -1160 0
-1137 -1161 0
-1137 -1162 0
-1137 -1163 0
-1137 -1164 0
-1137 -1165 0
-1138 -1139 0
-1138 -1140 0
-1138 -1141 0
-1138 -1142 0
-1138 -1143 0
-1138 -1144 0
-1138 -1145 0
-1138 -1146 0
-1138 -1147 0
-1138 -1148 0
-1138 -1149 0
-1138 -1150 0
-1138 -1151 0
-1138 -1152 0
-1138 -1153 0
-1138 -1154 0
-1138 -1155 0
-1138 -1156 0
-1138 -1157 0
-1138 -1158 0
-1138 -1159 0
-1138 -1160 0
-1138 -1161 0
-1138 -1162 0
-1138 -1163 0
-1138 -1164 0
-1138 -1165 0
-1139 -1140 0
-1139 -1141 0
-1139 -1142 0
-1139 -1143 0
-1139 -1144 0
-1139 -1145 0
-1139 -1146 0
-1139 -1147 0
-1139 -1148 0
-1139 -1149 0
-1139 -1150 0
-1139 -1151 0
-1139 -1152 0
-1139 -1153 0
-1139 -1154 0
-1139 -1155 0
-1139 -1156 0
-1139 -1157 0
-1139 -1158 0
-1139 -1159 0
-1139 -1160 0
-1139 -1161 0
-1139 -1162 0
-1139 -1163 0
-1139 -1164 0
-1139 -1165 0
-1140 -1141 0
-1140 -1142 0
-1140 -1143 0
-1140 -1144 0
-1140 -1145 0
-1140 -1146 0
-1140 -1147 0
-1140 -1148 0
-1140 -1149 0
-1140 -1150 0
-1140 -1151 0
-1140 -1152 0
-1140 -1153 0
-1140 -1154 0
-1140 -1155 0
-1140 -1156 0
-1140 -1157 0
-1140 -1158 0
-1140 -1159 0
-1140 -1160 0
-1140 -1161 0
-1140 -1162 0
-1140 -1163 0
-1140 -1164 0
-1140 -1165 0
-1141 -1142 0
-1141 -1143 0
-1141 -1144 0
-1141 -1145 0
-1141 -1146 0
-1141 -1147 0
-1141 -1148 0
-1141 -1149 0
-1141 -1150 0
-1141 -1151 0
-1141 -1152 0
-1141 -1153 0
-1141 -1154 0
-1141 -1155 0
-1141 -1156 0
-1141 -1157 0
-1141 -1158 0
-1141 -1159 0
-1141 -1160 0
-1141 -1161 0
-1141 -1162 0
-1141 -1163 0
-1141 -1164 0
-1141 -1165 0
-1142 -1143 0
-1142 -1144 0
-1142 -1145 0
-1142 -1146 0
-1142 -1147 0
-1142 -1148 0
-1142 -1149 0
-1142 -1150 0
-1142 -1151 0
-1142 -1152 0
-1142 -1153 0
-1142 -1154 0
-1142 -1155 0
-1142 -1156 0
-1142 -1157 0
-1142 -1158 0
-1142 -1159 0
-1142 -1160 0
-1142 -1161 0
-1142 -1162 0
-1142 -1163 0
-1142 -1164 0
-1142 -1165 0
-1143 -1144 0
-1143 -1145 0
-1143 -1146 0
-1143 -1147 0
-1143 -1148 0
-1143 -1149 0
-1143 -1150 0
-1143 -1151 0
-1143 -1152 0
-1143 -1153 0
-1143 -1154 0
-1143 -1155 0
-1143 -1156 0
-1143 -1157 0
-1143 -1158 0
-1143 -1159 0
-1143 -1160 0
-1143 -1161 0
-1143 -1162 0
-1143 -1163 0
-1143 -1164 0
-1143 -1165 0
-1144 -1145 0
-1144 -1146 0
-1144 -1147 0
-1144 -1148 0
-1144 -1149 0
-1144 -1150 0
-1144 -1151 0
-1144 -1152 0
-1144 -1153 0
-1144 -1154 0
-1144 -1155 0
-1144 -1156 0
-1144 -1157 0
-1144 -1158 0
-1144 -1159 0
-1144 -1160 0
-1144 -1161 0
-1144 -1162 0
-1144 -1163 0
-1144 -1164 0
-1144 -1165 0
-1145 -1146 0
-1145 -1147 0
-1145 -1148 0
-1145 -1149 0
-1145 -1150 0
-1145 -1151 0
-1145 -1152 0
-1145 -1153 0
-1145 -1154 0
-1145 -1155 0
-1145 -1156 0
-1145 -1157 0
-1145 -1158 0
-1145 -1159 0
-1145 -1160 0
-1145 -1161 0
-1145 -1162 0
-1145 -1163 0
-1145 -1164 0
-1145 -1165 0
-1146 -1147 0
-1146 -1148 0
-1146 -1149 0
-1146 -1150 0
-1146 -1151 0
-1146 -1152 0
-1146 -1153 0
-1146 -1154 0
-1146 -1155 0
-1146 -1156 0
-1146 -1157 0
-1146 -1158 0
-1146 -1159 0
-1146 -1160 0
-1146 -1161 0
-1146 -1162 0
-1146 -1163 0
-1146 -1164 0
-1146 -1165 0
-1147 -1148 0
-1147 -1149 0
-1147 -1150 0
-1147 -1151 0
-1147 -1152 0
-1147 -1153 0
-1147 -1154 0
-1147 -1155 0
-1147 -1156 0
-1147 -1157 0
-1147 -1158 0
-1147 -1159 0
-1147 -1160 0
-1147 -1161 0
-1147 -1162 0
-1147 -1163 0
-1147 -1164 0
-1147 -1165 0
-1148 -1149 0
-1148 -1150 0
-1148 -1151 0
-1148 -1152 0
-1148 -1153 0
-1148 -1154 0
-1148 -1155 0
-1148 -1156 0
-1148 -1157 0
-1148 -1158 0
-1148 -1159 0
-1148 -1160 0
-1148 -1161 0
-1148 -1162 0
-1148 -1163 0
-1148 -1164 0
-1148 -1165 0
-1149 -1150 0
-1149 -1151 0
-1149 -1152 0
-1149 -1153 0
-1149 -1154 0
-1149 -1155 0
-1149 -1156 0
-1149 -1157 0
-1149 -1158 0
-1149 -1159 0
-1149 -1160 0
-1149 -1161 0
-1149 -1162 0
-1149 -1163 0
-1149 -1164 0
-1149 -1165 0
-1150 -1151 0
-1150 -1152 0
-1150 -1153 0
-1150 -1154 0
-1150 -1155 0
-1150 -1156 0
-1150 -1157 0
-1150 -1158 0
-1150 -1159 0
-1150 -1160 0
-1150 -1161 0
-1150 -1162 0
-1150 -1163 0
-1150 -1164 0
-1150 -1165 0
-1151 -1152 0
-1151 -1153 0
-1151 -1154 0
-1151 -1155 0
-1151 -1156 0
-1151 -1157 0
-1151 -1158 0
-1151 -1159 0
-1151 -1160 0
-1151 -1161 0
-1151 -1162 0
-1151 -1163 0
-1151 -1164 0
-1151 -1165 0
-1152 -1153 0
-1152 -1154 0
-1152 -1155 0
-1152 -1156 0
-1152 -1157 0
-1152 -1158 0
-1152 -1159 0
-1152 -1160 0
-1152 -1161 0
-1152 -1162 0
-1152 -1163 0
-1152 -1164 0
-1152 -1165 0
-1153 -1154 0
-1153 -1155 0
-1153 -1156 0
-1153 -1157 0
-1153 -1158 0
-1153 -1159 0
-1153 -1160 0
-1153 -1161 0
-1153 -1162 0
-1153 -1163 0
-1153 -1164 0
-1153 -1165 0
-1154 -1155 0
-1154 -1156 0
-1154 -1157 0
-1154 -1158 0
-1154 -1159 0
-1154 -1160 0
-1154 -1161 0
-1154 -1162 0
-1154 -1163 0
-1154 -1164 0
-1154 -1165 0
-1155 -1156 0
-1155 -1157 0
-1155 -1158 0
-1155 -1159 0
-1155 -1160 0
-1155 -1161 0
-1155 -1162 0
-1155 -1163 0
-1155 -1164 0
-1155 -1165 0
-1156 -1157 0
-1156 -1158 0
-1156 -1159 0
-1156 -1160 0
-1156 -1161 0
-1156 -1162 0
-1156 -1163 0
-1156 -1164 0
-1156 -1165 0
-1157 -1158 0
-1157 -1159 0
-1157 -1160 0
-1157 -1161 0
-1157 -1162 0
-1157 -1163 0
-1157 -1164 0
-1157 -1165 0
-1158 -1159 0
-1158 -1160 0
-1158 -1161 0
-1158 -1162 0
-1158 -1163 0
-1158 -1164 0
-1158 -1165 0
-1159 -1160 0
-1159 -1161 0
-1159 -1162 0
-1159 -1163 0
-1159 -1164 0
-1159 -1165 0
-1160 -1161 0
-1160 -1162 0
-1160 -1163 0
-1160 -1164 0
-1160 -1165 0
-1161 -1162 0
-1161 -1163 0
-1161 -1164 0
-1161 -1165 0
-1162 -1163 0
-1162 -1164 0
-1162 -1165 0
-1163 -1164 0
-1163 -1165 0
-1164 -1165 0
-1077 12 1122 0
-1077 -12 1121 0
-1078 12 1123 0
-1078 -12 1122 0
-1079 12 1124 0
-1079 -12 1123 0
-1080 12 1125 0
-1080 -12 1124 0
-1081 12 1126 0
-1081 -12 1125 0
-1082 12 1127 0
-1082 -12 1126 0
-1083 12 1128 0
-1083 -12 1127 0
-1084 12 1129 0
-1084 -12 1128 0
-1085 12 1130 0
-1085 -12 1129 0
-1086 12 1131 0
-1086 -12 1130 0
-1087 12 1132 0
-1087 -12 1131 0
-1088 12 1133 0
-1088 -12 1132 0
-1089 12 1134 0
-1089 -12 1133 0
-1090 12 1135 0
-1090 -12 1134 0
-1091 12 1136 0
-1091 -12 1135 0
-1092 12 1137 0
-1092 -12 1136 0
-1093 12 1138 0
-1093 -12 1137 0
-1094 12 1139 0
-1094 -12 1138 0
-1095 12 1140 0
-1095 -12 1139 0
-1096 12 1141 0
-1096 -12 1140 0
-1097 12 1142 0
-1097 -12 1141 0
-1098 12 1143 0
-1098 -12 1142 0
-1099 12 1144 0
-1099 -12 1143 0
-1100 12 1145 0
-1100 -12 1144 0
-1101 12 1146 0
-1101 -12 1145 0
-1102 12 1147 0
-1102 -12 1146 0
-1103 12 1148 0
-1103 -12 1147 0
-1104 12 1149 0
-1104 -12 1148 0
-1105 12 1150 0
-1105 -12 1149 0
-1106 12 1151 0
-1106 -12 1150 0
-1107 12 1152 0
-1107 -12 1151 0
-1108 12 1153 0
-1108 -12 1152 0
-1109 12 1154 0
-1109 -12 1153 0
-1110 12 1155 0
-1110 -12 1154 0
-1111 12 1156 0
-1111 -12 1155 0
-1112 12 1157 0
-1112 -12 1156 0
-1113 12 1158 0
-1113 -12 1157 0
-1114 12 1159 0
-1114 -12 1158 0
-1115 12 1160 0
-1115 -12 1159 0
-1116 12 1161 0
-1116 -12 1160 0
-1117 12 1162 0
-1117 -12 1161 0
-1118 12 1163 0
-1118 -12 1162 0
-1119 12 1164 0
-1119 -12 1163 0
-1120 12 1165 0
-1120 -12 1164 0
1166 1167 1168 1169 1170 1171 1172 1173 1174 1175 1176 1177 1178 1179 1180 1181 1182 1183 1184 1185 1186 1187 1188 1189 1190 1191 1192 1193 1194 1195 1196 1197 1198 1199 1200 1201 1202 1203 1204 1205 1206 1207 1208 1209 1210 1211 0
-1166 -1167 0
-1166 -1168 0
-1166 -1169 0
-1166 -1170 0
-1166 -1171 0
-1166 -1172 0
-1166 -1173 0
-1166 -1174 0
-1166 -1175 0
-1166 -1176 0
-1166 -1177 0
-1166 -1178 0
-1166 -1179 0
-1166 -1180 0
-1166 -1181 0
-1166 -1182 0
-1166 -1183 0
-1166 -1184 0
-1166 -1185 0
-1166 -1186 0
-1166 -1187 0
-1166 -1188 0
-1166 -1189 0
-1166 -1190 0
-1166 -1191 0
-1166 -1192 0
-1166 -1193 0
-1166 -1194 0
-1166 -1195 0
-1166 -1196 0
-1166 -1197 0
-1166 -1198 0
-1166 -1199 0
-1166 -1200 0
-1166 -1201 0
-1166 -1202 0
-1166 -1203 0
-1166 -1204 0
-1166 -1205 0
-1166 -1206 0
-1166 -1207 0
-1166 -1208 0
-1166 -1209 0
-1166 -1210 0
-1166 -1211 0
-1167 -1168 0
-1167 -1169 0
-1167 -1170 0
-1167 -1171 0
-1167 -1172 0
-1167 -1173 0
-1167 -1174 0
-1167 -1175 0
-1167 -1176 0
-1167 -1177 0
-1167 -1178 0
-1167 -1179 0
-1167 -1180 0
-1167 -1181 0
-1167 -1182 0
-1167 -1183 0
-1167 -1184 0
-1167 -1185 0
-1167 -1186 0
-1167 -1187 0
-1167 -1188 0
-1167 -1189 0
-1167 -1190 0
-1167 -1191 0
-1167 -1192 0
-1167 -1193 0
-1167 -1194 0
-1167 -1195 0
-1167 -1196 0
-1167 -1197 0
-1167 -1198 0
-1167 -1199 0
-1167 -1200 0
-1167 -1201 0
-1167 -1202 0
-1167 -1203 0
-1167 -1204 0
-1167 -1205 0
-1167 -1206 0
-1167 -1207 0
-1167 -1208 0
-1167 -1209 0
-1167 -1210 0
-1167 -1211 0
-1168 -1169 0
-1168 -1170 0
-1168 -1171 0
-1168 -1172 0
-1168 -1173 0
-1168 -1174 0
-1168 -1175 0
-1168 -1176 0
-1168 -1177 0
-1168 -1178 0
-1168 -1179 0
-1168 -1180 0
-1168 -1181 0
-1168 -1182 0
-1168 -1183 0
-1168 -1184 0
-1168 -1185 0
-1168 -1186 0
-1168 -1187 0
-1168 -1188 0
-1168 -1189 0
-1168 -1190 0
-1168 -1191 0
-1168 -1192 0
-1168 -1193 0
-1168 -1194 0
-1168 -1195 0
-1168 -1196 0
-1168 -1197 0
-1168 -1198 0
-1168 -1199 0
-1168 -1200 0
-1168 -1201 0
-1168 -1202 0
-1168 -1203 0
-1168 -1204 0
-1168 -1205 0
-1168 -1206 0
-1168 -1207 0
-1168 -1208 0
-1168 -1209 0
-1168 -1210 0
-1168 -1211 0
-1169 -1170 0
-1169 -1171 0
-1169 -1172 0
-1169 -1173 0
-1169 -1174 0
-1169 -1175 0
-1169 -1176 0
-1169 -1177 0
-1169 -1178 0
-1169 -1179 0
-1169 -1180 0
-1169 -1181 0
-1169 -1182 0
-1169 -1183 0
-1169 -1184 0
-1169 -1185 0
-1169 -1186 0
-1169 -1187 0
-1169 -1188 0
-1169 -1189 0
-1169 -1190 0
-1169 -1191 0
-1169 -1192 0
-1169 -1193 0
-1169 -1194 0
-1169 -1195 0
-1169 -1196 0
-1169 -1197 0
-1169 -1198 0
-1169 -1199 0
-1169 -1200 0
-1169 -1201 0
-1169 -1202 0
-1169 -1203 0
-1169 -1204 0
-1169 -1205 0
-1169 -1206 0
-1169 -1207 0
-1169 -1208 0
-1169 -1209 0
-1169 -1210 0
-1169 -1211 0
-1170 -1171 0
-1170 -1172 0
-1170 -1173 0
-1170 -1174 0
-1170 -1175 0
-1170 -1176 0
-1170 -1177 0
-1170 -1178 0
-1170 -1179 0
-1170 -1180 0
-1170 -1181 0
-1170 -1182 0
-1170 -1183 0
-1170 -1184 0
-1170 -1185 0
-1170 -1186 0
-1170 -1187 0
-1170 -1188 0
-1170 -1189 0
-1170 -1190 0
-1170 -1191 0
-1170 -1192 0
-1170 -1193 0
-1170 -1194 0
-1170 -1195 0
-1170 -1196 0
-1170 -1197 0
-1170 -1198 0
-1170 -1199 0
-1170 -1200 0
-1170 -1201 0
-1170 -1202 0
-1170 -1203 0
-1170 -1204 0
-1170 -1205 0
-1170 -1206 0
-1170 -1207 0
-1170 -1208 0
-1170 -1209 0
-1170 -1210 0
-1170 -1211 0
-1171 -1172 0
-1171 -1173 0
-1171 -1174 0
-1171 -1175 0
-1171 -1176 0
-1171 -1177 0
-1171 -1178 0
-1171 -1179 0
-1171 -1180 0
-1171 -1181 0
-1171 -1182 0
-1171 -1183 0
-1171 -1184 0
-1171 -1185 0
-1171 -1186 0
-1171 -1187 0
-1171 -1188 0
-1171 -1189 0
-1171 -1190 0
-1171 -1191 0
-1171 -1192 0
-1171 -1193 0
-1171 -1194 0
-1171 -1195 0
-1171 -1196 0
-1171 -1197 0
-1171 -1198 0
-1171 -1199 0
-1171 -1200 0
-1171 -1201 0
-1171 -1202 0
-1171 -1203 0
-1171 -1204 0
-1171 -1205 0
-1171 -1206 0
-1171 -1207 0
-1171 -1208 0
-1171 -1209 0
-1171 -1210 0
-1171 -1211 0
-1172 -1173 0
-1172 -1174 0
-1172 -1175 0
-1172 -1176 0
-1172 -1177 0
-1172 -1178 0
-1172 -1179 0
-1172 -1180 0
-1172 -1181 0
-1172 -1182 0
-1172 -1183 0
-1172 -1184 0
-1172 -1185 0
-1172 -1186 0
-1172 -1187 0
-1172 -1188 0
-1172 -1189 0
-1172 -1190 0
-1172 -1191 0
-1172 -1192 0
-1172 -1193 0
-1172 -1194 0
-1172 -1195 0
-1172 -1196 0
-1172 -1197 0
-1172 -1198 0
-1172 -1199 0
-1172 -1200 0
-1172 -1201 0
-1172 -1202 0
-1172 -1203 0
-1172 -1204 0
-1172 -1205 0
-1172 -1206 0
-1172 -1207 0
-1172 -1208 0
-1172 -1209 0
-1172 -1210 0
-1172 -1211 0
-1173 -1174 0
-1173 -1175 0
-1173 -1176 0
-1173 -1177 0
-1173 -1178 0
-1173 -1179 0
-1173 -1180 0
-1173 -1181 0
-1173 -1182 0
-1173 -1183 0
-1173 -1184 0
-1173 -1185 0
-1173 -1186 0
-1173 -1187 0
-1173 -1188 0
-1173 -1189 0
-1173 -1190 0
-1173 -1191 0
-1173 -1192 0
-1173 -1193 0
-1173 -1194 0
-1173 -1195 0
-1173 -1196 0
-1173 -1197 0
-1173 -1198 0
-1173 -1199 0
-1173 -1200 0
-1173 -1201 0
-1173 -1202 0
-1173 -1203 0
-1173 -1204 0
-1173 -1205 0
-1173 -1206 0
-1173 -1207 0
-1173 -1208 0
-1173 -1209 0
-1173 -1210 0
-1173 -1211 0
-1174 -1175 0
-1174 -1176 0
-1174 -1177 0
-1174 -1178 0
-1174 -1179 0
-1174 -1180 0
-1174 -1181 0
-1174 -1182 0
-1174 -1183 0
-1174 -1184 0
-1174 -1185 0
-1174 -1186 0
-1174 -1187 0
-1174 -1188 0
-1174 -1189 0
-1174 -1190 0
-1174 -1191 0
-1174 -1192 0
-1174 -1193 0
-1174 -1194 0
-1174 -1195 0
-1174 -1196 0
-1174 -1197 0
-1174 -1198 0
-1174 -1199 0
-1174 -1200 0
-1174 -1201 0
-1174 -1202 0
-1174 -1203 0
-1174 -1204 0
-1174 -1205 0
-1174 -1206 0
-1174 -1207 0
-1174 -1208 0
-1174 -1209 0
-1174 -1210 0
-1174 -1211 0
-1175 -1176 0
-1175 -1177 0
-1175 -1178 0
-1175 -1179 0
-1175 -1180 0
-1175 -1181 0
-1175 -1182 0
-1175 -1183 0
-1175 -1184 0
-1175 -1185 0
-1175 -1186 0
-1175 -1187 0
-1175 -1188 0
-1175 -1189 0
-1175 -1190 0
-1175 -1191 0
-1175 -1192 0
-1175 -1193 0
-1175 -1194 0
-1175 -1195 0
-1175 -1196 0
-1175 -1197 0
-1175 -1198 0
-1175 -1199 0
-1175 -1200 0
-1175 -1201 0
-1175 -1202 0
-1175 -1203 0
-1175 -1204 0
-1175 -1205 0
-1175 -1206 0
-1175 -1207 0
-1175 -1208 0
-1175 -1209 0
-1175 -1210 0
-1175 -1211 0
-1176 -1177 0
-1176 -1178 0
-1176 -1179 0
-1176 -1180 0
-1176 -1181 0
-1176 -1182 0
-1176 -1183 0
-1176 -1184 0
-1176 -1185 0
-1176 -1186 0
-1176 -1187 0
-1176 -1188 0
-1176 -1189 0
-1176 -1190 0
-1176 -1191 0
-1176 -1192 0
-1176 -1193 0
-1176 -1194 0
-1176 -1195 0
-1176 -1196 0
-1176 -1197 0
-1176 -1198 0
-1176 -1199 0
-1176 -1200 0
-1176 -1201 0
-1176 -1202 0
-1176 -1203 0
-1176 -1204 0
-1176 -1205 0
-1176 -1206 0
-1176 -1207 0
-1176 -1208 0
-1176 -1209 0
-1176 -1210 0
-1176 -1211 0
-1177 -1178 0
-1177 -1179 0
-1177 -1180 0
-1177 -1181 0
-1177 -1182 0
-1177 -1183 0
-1177 -1184 0
-1177 -1185 0
-1177 -1186 0
-1177 -1187 0
-1177 -1188 0
-1177 -1189 0
-1177 -1190 0
-1177 -1191 0
-1177 -1192 0
-1177 -1193 0
-1177 -1194 0
-1177 -1195 0
-1177 -1196 0
-1177 -1197 0
-1177 -1198 0
-1177 -1199 0
-1177 -1200 0
-1177 -1201 0
-1177 -1202 0
-1177 -1203 0
-1177 -1204 0
-1177 -1205 0
-1177 -1206 0
-1177 -1207 0
-1177 -1208 0
-1177 -1209 0
-1177 -1210 0
-1177 -1211 0
-1178 -1179 0
-1178 -1180 0
-1178 -1181 0
-1178 -1182 0
-1178 -1183 0
-1178 -1184 0
-1178 -1185 0
-1178 -1186 0
-1178 -1187 0
-1178 -1188 0
-1178 -1189 0
-1178 -1190 0
-1178 -1191 0
-1178 -1192 0
-1178 -1193 0
-1178 -1194 0
-1178 -1195 0
-1178 -1196 0
-1178 -1197 0
-1178 -1198 0
-1178 -1199 0
-1178 -1200 0
-1178 -1201 0
-1178 -1202 0
-1178 -1203 0
-1178 -1204 0
-1178 -1205 0
-1178 -1206 0
-1178 -1207 0
-1178 -1208 0
-1178 -1209 0
-1178 -1210 0
-1178 -1211 0
-1179 -1180 0
-1179 -1181 0
-1179 -1182 0
-1179 -1183 0
-1179 -1184 0
-1179 -1185 0
-1179 -1186 0
-1179 -1187 0
-1179 -1188 0
-1179 -1189 0
-1179 -1190 0
-1179 -1191 0
-1179 -1192 0
-1179 -1193 0
-1179 -1194 0
-1179 -1195 0
-1179 -1196 0
-1179 -1197 0
-1179 -1198 0
-1179 -1199 0
-1179 -1200 0
-1179 -1201 0
-1179 -1202 0
-1179 -1203 0
-1179 -1204 0
-1179 -1205 0
-1179 -1206 0
-1179 -1207 0
-1179 -1208 0
-1179 -1209 0
-1179 -1210 0
-1179 -1211 0
-1180 -1181 0
-1180 -1182 0
-1180 -1183 0
-1180 -1184 0
-1180 -1185 0
-1180 -1186 0
-1180 -1187 0
-1180 -1188 0
-1180 -1189 0
-1180 -1190 0
-1180 -1191 0
-1180 -1192 0
-1180 -1193 0
-1180 -1194 0
-1180 -1195 0
-1180 -1196 0
-1180 -1197 0
-1180 -1198 0
-1180 -1199 0
-1180 -1200 0
-1180 -1201 0
-1180 -1202 0
-1180 -1203 0
-1180 -1204 0
-1180 -1205 0
-1180 -1206 0
-1180 -1207 0
-1180 -1208 0
-1180 -1209 0
-1180 -1210 0
-1180 -1211 0
-1181 -1182 0
-1181 -1183 0
-1181 -1184 0
-1181 -1185 0
-1181 -1186 0
-1181 -1187 0
-1181 -1188 0
-1181 -1189 0
-1181 -1190 0
-1181 -1191 0
-1181 -1192 0
-1181 -1193 0
-1181 -1194 0
-1181 -1195 0
-1181 -1196 0
-1181 -1197 0
-1181 -1198 0
-1181 -1199 0
-1181 -1200 0
-1181 -1201 0
-1181 -1202 0
-1181 -1203 0
-1181 -1204 0
-1181 -1205 0
-1181 -1206 0
-1181 -1207 0
-1181 -1208 0
-1181 -1209 0
-1181 -1210 0
-1181 -1211 0
-1182 -1183 0
-1182 -1184 0
-1182 -1185 0
-1182 -1186 0
-1182 -1187 0
-1182 -1188 0
-1182 -1189 0
-1182 -1190 0
-1182 -1191 0
-1182 -1192 0
-1182 -1193 0
-1182 -1194 0
-1182 -1195 0
-1182 -1196 0
-1182 -1197 0
-1182 -1198 0
-1182 -1199 0
-1182 -1200 0
-1182 -1201 0
-1182 -1202 0
-1182 -1203 0
-1182 -1204 0
-1182 -1205 0
-1182 -1206 0
-1182 -1207 0
-1182 -1208 0
-1182 -1209 0
-1182 -1210 0
-1182 -1211 0
-1183 -1184 0
-1183 -1185 0
-1183 -1186 0
-1183 -1187 0
-1183 -1188 0
-1183 -1189 0
-1183 -1190 0
-1183 -1191 0
-1183 -1192 0
-1183 -1193 0
-1183 -1194 0
-1183 -1195 0
-1183 -1196 0
-1183 -1197 0
-1183 -1198 0
-1183 -1199 0
-1183 -1200 0
-1183 -1201 0
-1183 -1202 0
-1183 -1203 0
-1183 -1204 0
-1183 -1205 0
-1183 -1206 0
-1183 -1207 0
-1183 -1208 0
-1183 -1209 0
-1183 -1210 0
-1183 -1211 0
-1184 -1185 0
-1184 -1186 0
-1184 -1187 0
-1184 -1188 0
-1184 -1189 0
-1184 -1190 0
-1184 -1191 0
-1184 -1192 0
-1184 -1193 0
-1184 -1194 0
-1184 -1195 0
-1184 -1196 0
-1184 -1197 0
-1184 -1198 0
-1184 -1199 0
-1184 -1200 0
-1184 -1201 0
-1184 -1202 0
-1184 -1203 0
-1184 -1204 0
-1184 -1205 0
-1184 -1206 0
-1184 -1207 0
-1184 -1208 0
-1184 -1209 0
-1184 -1210 0
-1184 -1211 0
-1185 -1186 0
-1185 -1187 0
-1185 -1188 0
-1185 -1189 0
-1185 -1190 0
-1185 -1191 0
-1185 -1192 0
-1185 -1193 0
-1185 -1194 0
-1185 -1195 0
-1185 -1196 0
-1185 -1197 0
-1185 -1198 0
-1185 -1199 0
-1185 -1200 0
-1185 -1201 0
-1185 -1202 0
-1185 -1203 0
-1185 -1204 0
-1185 -1205 0
-1185 -1206 0
-1185 -1207 0
-1185 -1208 0
-1185 -1209 0
-1185 -1210 0
-1185 -1211 0
-1186 -1187 0
-1186 -1188 0
-1186 -1189 0
-1186 -1190 0
-1186 -1191 0
-1186 -1192 0
-1186 -1193 0
-1186 -1194 0
-1186 -1195 0
-1186 -1196 0
-1186 -1197 0
-1186 -1198 0
-1186 -1199 0
-1186 -1200 0
-1186 -1201 0
-1186 -1202 0
-1186 -1203 0
-1186 -1204 0
-1186 -1205 0
-1186 -1206 0
-1186 -1207 0
-1186 -1208 0
-1186 -1209 0
-1186 -1210 0
-1186 -1211 0
-1187 -1188 0
-1187 -1189 0
-1187 -1190 0
-1187 -1191 0
-1187 -1192 0
-1187 -1193 0
-1187 -1194 0
-1187 -1195 0
-1187 -1196 0
-1187 -1197 0
-1187 -1198 0
-1187 -1199 0
-1187 -1200 0
-1187 -1201 0
-1187 -1202 0
-1187 -1203 0
-1187 -1204 0
-1187 -1205 0
-1187 -1206 0
-1187 -1207 0
-1187 -1208 0
-1187 -1209 0
-1187 -1210 0
-1187 -1211 0
-1188 -1189 0
-1188 -1190 0
-1188 -1191 0
-1188 -1192 0
-1188 -1193 0
-1188 -1194 0
-1188 -1195 0
-1188 -1196 0
-1188 -1197 0
-1188 -1198 0
-1188 -1199 0
-1188 -1200 0
-1188 -1201 0
-1188 -1202 0
-1188 -1203 0
-1188 -1204 0
-1188 -1205 0
-1188 -1206 0
-1188 -1207 0
-1188 -1208 0
-1188 -1209 0
-1188 -1210 0
-1188 -1211 0
-1189 -1190 0
-1189 -1191 0
-1189 -1192 0
-1189 -1193 0
-1189 -1194 0
-1189 -1195 0
-1189 -1196 0
-1189 -1197 0
-1189 -1198 0
-1189 -1199 0
-1189 -1200 0
-1189 -1201 0
-1189 -1202 0
-1189 -1203 0
-1189 -1204 0
-1189 -1205 0
-1189 -1206 0
-1189 -1207 0
-1189 -1208 0
-1189 -1209 0
-1189 -1210 0
-1189 -1211 0
-1190 -1191 0
-1190 -1192 0
-1190 -1193 0
-1190 -1194 0
-1190 -1195 0
-1190 -1196 0
-1190 -1197 0
-1190 -1198 0
-1190 -1199 0
-1190 -1200 0
-1190 -1201 0
-1190 -1202 0
-1190 -1203 0
-1190 -1204 0
-1190 -1205 0
-1190 -1206 0
-1190 -1207 0
-1190 -1208 0
-1190 -1209 0
-1190 -1210 0
-1190 -1211 0
-1191 -1192 0
-1191 -1193 0
-1191 -1194 0
-1191 -1195 0
-1191 -1196 0
-1191 -1197 0
-1191 -1198 0
-1191 -1199 0
-1191 -1200 0
-1191 -1201 0
-1191 -1202 0
-1191 -1203 0
-1191 -1204 0
-1191 -1205 0
-1191 -1206 0
-1191 -1207 0
-1191 -1208 0
-1191 -1209 0
-1191 -1210 0
-1191 -1211 0
-1192 -1193 0
-1192 -1194 0
-1192 -1195 0
-1192 -1196 0
-1192 -1197 0
-1192 -1198 0
-1192 -1199 0
-1192 -1200 0
-1192 -1201 0
-1192 -1202 0
-1192 -1203 0
-1192 -1204 0
-1192 -1205 0
-1192 -1206 0
-1192 -1207 0
-1192 -1208 0
-1192 -1209 0
-1192 -1210 0
-1192 -1211 0
-1193 -1194 0
-1193 -1195 0
-1193 -1196 0
-1193 -1197 0
-1193 -1198 0
-1193 -1199 0
-1193 -1200 0
-1193 -1201 0
-1193 -1202 0
-1193 -1203 0
-1193 -1204 0
-1193 -1205 0
-1193 -1206 0
-1193 -1207 0
-1193 -1208 0
-1193 -1209 0
-1193 -1210 0
-1193 -1211 0
-1194 -1195 0
-1194 -1196 0
-1194 -1197 0
-1194 -1198 0
-1194 -1199 0
-1194 -1200 0
-1194 -1201 0
-1194 -1202 0
-1194 -1203 0
-1194 -1204 0
-1194 -1205 0
-1194 -1206 0
-1194 -1207 0
-1194 -1208 0
-1194 -1209 0
-1194 -1210 0
-1194 -1211 0
-1195 -1196 0
-1195 -1197 0
-1195 -1198 0
-1195 -1199 0
-1195 -1200 0
-1195 -1201 0
-1195 -1202 0
-1195 -1203 0
-1195 -1204 0
-1195 -1205 0
-1195 -1206 0
-1195 -1207 0
-1195 -1208 0
-1195 -1209 0
-1195 -1210 0
-1195 -1211 0
-1196 -1197 0
-1196 -1198 0
-1196 -1199 0
-1196 -1200 0
-1196 -1201 0
-1196 -1202 0
-1196 -1203 0
-1196 -1204 0
-1196 -1205 0
-1196 -1206 0
-1196 -1207 0
-1196 -1208 0
-1196 -1209 0
-1196 -1210 0
-1196 -1211 0
-1197 -1198 0
-1197 -1199 0
-1197 -1200 0
-1197 -1201 0
-1197 -1202 0
-1197 -1203 0
-1197 -1204 0
-1197 -1205 0
-1197 -1206 0
-1197 -1207 0
-1197 -1208 0
-1197 -1209 0
-1197 -1210 0
-1197 -1211 0
-1198 -1199 0
-1198 -1200 0
-1198 -1201 0
-1198 -1202 0
-1198 -1203 0
-1198 -1204 0
-1198 -1205 0
-1198 -1206 0
-1198 -1207 0
-1198 -1208 0
-1198 -1209 0
-1198 -1210 0
-1198 -1211 0
-1199 -1200 0
-1199 -1201 0
-1199 -1202 0
-1199 -1203 0
-1199 -1204 0
-1199 -1205 0
-1199 -1206 0
-1199 -1207 0
-1199 -1208 0
-1199 -1209 0
-1199 -1210 0
-1199 -1211 0
-1200 -1201 0
-1200 -1202 0
-1200 -1203 0
-1200 -1204 0
-1200 -1205 0
-1200 -1206 0
-1200 -1207 0
-1200 -1208 0
-1200 -1209 0
-1200 -1210 0
-1200 -1211 0
-1201 -1202 0
-1201 -1203 0
-1201 -1204 0
-1201 -1205 0
-1201 -1206 0
-1201 -1207 0
-1201 -1208 0
-1201 -1209 0
-1201 -1210 0
-1201 -1211 0
-1202 -1203 0
-1202 -1204 0
-1202 -1205 0
-1202 -1206 0
-1202 -1207 0
-1202 -1208 0
-1202 -1209 0
-1202 -1210 0
-1202 -1211 0
-1203 -1204 0
-1203 -1205 0
-1203 -1206 0
-1203 -1207 0
-1203 -1208 0
-1203 -1209 0
-1203 -1210 0
-1203 -1211 0
-1204 -1205 0
-1204 -1206 0
-1204 -1207 0
-1204 -1208 0
-1204 -1209 0
-1204 -1210 0
-1204 -1211 0
-1205 -1206 0
-1205 -1207 0
-1205 -1208 0
-1205 -1209 0
-1205 -1210 0
-1205 -1211 0
-1206 -1207 0
-1206 -1208 0
-1206 -1209 0
-1206 -1210 0
-1206 -1211 0
-1207 -1208 0
-1207 -1209 0
-1207 -1210 0
-1207 -1211 0
-1208 -1209 0
-1208 -1210 0
-1208 -1211 0
-1209 -1210 0
-1209 -1211 0
-1210 -1211 0
-1121 15 1167 0
-1121 -15 1166 0
-1122 15 1168 0
-1122 -15 1167 0
-1123 15 1169 0
-1123 -15 1168 0
-1124 15 1170 0
-1124 -15 1169 0
-1125 15 1171 0
-1125 -15 1170 0
-1126 15 1172 0
-1126 -15 1171 0
-1127 15 1173 0
-1127 -15 1172 0
-1128 15 1174 0
-1128 -15 1173 0
-1129 15 1175 0
-1129 -15 1174 0
-1130 15 1176 0
-1130 -15 1175 0
-1131 15 1177 0
-1131 -15 1176 0
-1132 15 1178 0
-1132 -15 1177 0
-1133 15 1179 0
-1133 -15 1178 0
-1134 15 1180 0
-1134 -15 1179 0
-1135 15 1181 0
-1135 -15 1180 0
-1136 15 1182 0
-1136 -15 1181 0
-1137 15 1183 0
-1137 -15 1182 0
-1138 15 1184 0
-1138 -15 1183 0
-1139 15 1185 0
-1139 -15 1184 0
-1140 15 1186 0
-1140 -15 1185 0
-1141 15 1187 0
-1141 -15 1186 0
-1142 15 1188 0
-1142 -15 1187 0
-1143 15 1189 0
-1143 -15 1188 0
-1144 15 1190 0
-1144 -15 1189 0
-1145 15 1191 0
-1145 -15 1190 0
-1146 15 1192 0
-1146 -15 1191 0
-1147 15 1193 0
-1147 -15 1192 0
-1148 15 1194 0
-1148 -15 1193 0
-1149 15 1195 0
-1149 -15 1194 0
-1150 15 1196 0
-1150 -15 1195 0
-1151 15 1197 0
-1151 -15 1196 0
-1152 15 1198 0
-1152 -15 1197 0
-1153 15 1199 0
-1153 -15 1198 0
-1154 15 1200 0
-1154 -15 1199 0
-1155 15 1201 0
-1155 -15 1200 0
-1156 15 1202 0
-1156 -15 1201 0
-1157 15 1203 0
-1157 -15 1202 0
-1158 15 1204 0
-1158 -15 1203 0
-1159 15 1205 0
-1159 -15 1204 0
-1160 15 1206 0
-1160 -15 1205 0
-1161 15 1207 0
-1161 -15 1206 0
-1162 15 1208 0
-1162 -15 1207 0
-1163 15 1209 0
-1163 -15 1208 0
-1164 15 1210 0
-1164 -15 1209 0
-1165 15 1211 0
-1165 -15 1210 0
1212 1213 1214 1215 1216 1217 1218 1219 1220 1221 1222 1223 1224 1225 1226 1227 1228 1229 1230 1231 1232 1233 1234 1235 1236 1237 1238 1239 1240 1241 1242 1243 1244 1245 1246 1247 1248 1249 1250 1251 1252 1253 1254 1255 1256 1257 1258 0
-1212 -1213 0
-1212 -1214 0
-1212 -1215 0
-1212 -1216 0
-1212 -1217 0
-1212 -1218 0
-1212 -1219 0
-1212 -1220 0
-1212 -1221 0
-1212 -1222 0
-1212 -1223 0
-1212 -1224 0
-1212 -1225 0
-1212 -1226 0
-1212 -1227 0
-1212 -1228 0
-1212 -1229 0
-1212 -1230 0
-1212 -1231 0
-1212 -1232 0
-1212 -1233 0
-1212 -1234 0
-1212 -1235 0
-1212 -1236 0
-1212 -1237 0
-1212 -1238 0
-1212 -1239 0
-1212 -1240 0
-1212 -1241 0
-1212 -1242 0
-1212 -1243 0
-1212 -1244 0
-1212 -1245 0
-1212 -1246 0
-1212 -1247 0
-1212 -1248 0
-1212 -1249 0
-1212 -1250 0
-1212 -1251 0
-1212 -1252 0
-1212 -1253 0
-1212 -1254 0
-1212 -1255 0
-1212 -1256 0
-1212 -1257 0
-1212 -1258 0
-1213 -1214 0
-1213 -1215 0
-1213 -1216 0
-1213 -1217 0
-1213 -1218 0
-1213 -1219 0
-1213 -1220 0
-1213 -1221 0
-1213 -1222 0
-1213 -1223 0
-1213 -1224 0
-1213 -1225 0
-1213 -1226 0
-1213 -1227 0
-1213 -1228 0
-1213 -1229 0
-1213 -1230 0
-1213 -1231 0
-1213 -1232 0
-1213 -1233 0
-1213 -1234 0
-1213 -1235 0
-1213 -1236 0
-1213 -1237 0
-1213 -1238 0
-1213 -1239 0
-1213 -1240 0
-1213 -1241 0
-1213 -1242 0
-1213 -1243 0
-1213 -1244 0
-1213 -1245 0
-1213 -1246 0
-1213 -1247 0
-1213 -1248 0
-1213 -1249 0
-1213 -1250 0
-1213 -1251 0
-1213 -1252 0
-1213 -1253 0
-1213 -1254 0
-1213 -1255 0
-1213 -1256 0
-1213 -1257 0
-1213 -1258 0
-1214 -1215 0
-1214 -1216 0
-1214 -1217 0
-1214 -1218 0
-1214 -1219 0
-1214 -1220 0
-1214 -1221 0
-1214 -1222 0
-1214 -1223 0
-1214 -1224 0
-1214 -1225 0
-1214 -1226 0
-1214 -1227 0
-1214 -1228 0
-1214 -1229 0
-1214 -1230 0
-1214 -1231 0
-1214 -1232 0
-1214 -1233 0
-1214 -1234 0
-1214 -1235 0
-1214 -1236 0
-1214 -1237 0
-1214 -1238 0
-1214 -1239 0
-1214 -1240 0
-1214 -1241 0
-1214 -1242 0
-1214 -1243 0
-1214 -1244 0
-1214 -1245 0
-1214 -1246 0
-1214 -1247 0
-1214 -1248 0
-1214 -1249 0
-1214 -1250 0
-1214 -1251 0
-1214 -1252 0
-1214 -1253 0
-1214 -1254 0
-1214 -1255 0
-1214 -1256 0
-1214 -1257 0
-1214 -1258 0
-1215 -1216 0
-1215 -1217 0
-1215 -1218 0
-1215 -1219 0
-1215 -1220 0
-1215 -1221 0
-1215 -1222 0
-1215 -1223 0
-1215 -1224 0
-1215 -1225 0
-1215 -1226 0
-1215 -1227 0
-1215 -1228 0
-1215 -1229 0
-1215 -1230 0
-1215 -1231 0
-1215 -1232 0
-1215 -1233 0
-1215 -1234 0
-1215 -1235 0
-1215 -1236 0
-1215 -1237 0
-1215 -1238 0
-1215 -1239 0
-1215 -1240 0
-1215 -1241 0
-1215 -1242 0
-1215 -1243 0
-1215 -1244 0
-1215 -1245 0
-1215 -1246 0
-1215 -1247 0
-1215 -1248 0
-1215 -1249 0
-1215 -1250 0
-1215 -1251 0
-1215 -1252 0
-1215 -1253 0
-1215 -1254 0
-1215 -1255 0
-1215 -1256 0
-1215 -1257 0
-1215 -1258 0
-1216 -1217 0
-1216 -1218 0
-1216 -1219 0
-1216 -1220 0
-1216 -1221 0
-1216 -1222 0
-1216 -1223 0
-1216 -1224 0
-1216 -1225 0
-1216 -1226 0
-1216 -1227 0
-1216 -1228 0
-1216 -1229 0
-1216 -1230 0
-1216 -1231 0
-1216 -1232 0
-1216 -1233 0
-1216 -1234 0
-1216 -1235 0
-1216 -1236 0
-1216 -1237 0
-1216 -1238 0
-1216 -1239 0
-1216 -1240 0
-1216 -1241 0
-1216 -1242 0
-1216 -1243 0
-1216 -1244 0
-1216 -1245 0
-1216 -1246 0
-1216 -1247 0
-1216 -1248 0
-1216 -1249 0
-1216 -1250 0
-1216 -1251 0
-1216 -1252 0
-1216 -1253 0
-1216 -1254 0
-1216 -1255 0
-1216 -1256 0
-1216 -1257 0
-1216 -1258 0
-1217 -1218 0
-1217 -1219 0
-1217 -1220 0
-1217 -1221 0
-1217 -1222 0
-1217 -1223 0
-1217 -1224 0
-1217 -1225 0
-1217 -1226 0
-1217 -1227 0
-1217 -1228 0
-1217 -1229 0
-1217 -1230 0
-1217 -1231 0
-1217 -1232 0
-1217 -1233 0
-1217 -1234 0
-1217 -1235 0
-1217 -1236 0
-1217 -1237 0
-1217 -1238 0
-1217 -1239 0
-1217 -1240 0
-1217 -1241 0
-1217 -1242 0
-1217 -1243 0
-1217 -1244 0
-1217 -1245 0
-1217 -1246 0
-1217 -1247 0
-1217 -1248 0
-1217 -1249 0
-1217 -1250 0
-1217 -1251 0
-1217 -1252 0
-1217 -1253 0
-1217 -1254 0
-1217 -1255 0
-1217 -1256 0
-1217 -1257 0
-1217 -1258 0
-1218 -1219 0
-1218 -1220 0
-1218 -1221 0
-1218 -1222 0
-1218 -1223 0
-1218 -1224 0
-1218 -1225 0
-1218 -1226 0
-1218 -1227 0
-1218 -1228 0
-1218 -1229 0
-1218 -1230 0
-1218 -1231 0
-1218 -1232 0
-1218 -1233 0
-1218 -1234 0
-1218 -1235 0
-1218 -1236 0
-1218 -1237 0
-1218 -1238 0
-1218 -1239 0
-1218 -1240 0
-1218 -1241 0
-1218 -1242 0
-1218 -1243 0
-1218 -1244 0
-1218 -1245 0
-1218 -1246 0
-1218 -1247 0
-1218 -1248 0
-1218 -1249 0
-1218 -1250 0
-1218 -1251 0
-1218 -1252 0
-1218 -1253 0
-1218 -1254 0
-1218 -1255 0
-1218 -1256 0
-1218 -1257 0
-1218 -1258 0
-1219 -1220 0
-1219 -1221 0
-1219 -1222 0
-1219 -1223 0
-1219 -1224 0
-1219 -1225 0
-1219 -1226 0
-1219 -1227 0
-1219 -1228 0
-1219 -1229 0
-1219 -1230 0
-1219 -1231 0
-1219 -1232 0
-1219 -1233 0
-1219 -1234 0
-1219 -1235 0
-1219 -1236 0
-1219 -1237 0
-1219 -1238 0
-1219 -1239 0
-1219 -1240 0
-1219 -1241 0
-1219 -1242 0
-1219 -1243 0
-1219 -1244 0
-1219 -1245 0
-1219 -1246 0
-1219 -1247 0
-1219 -1248 0
-1219 -1249 0
-1219 -1250 0
-1219 -1251 0
-1219 -1252 0
-1219 -1253 0
-1219 -1254 0
-1219 -1255 0
-1219 -1256 0
-1219 -1257 0
-1219 -1258 0
-1220 -1221 0
-1220 -1222 0
-1220 -1223 0
-1220 -1224 0
-1220 -1225 0
-1220 -1226 0
-1220 -1227 0
-1220 -1228 0
-1220 -1229 0
-1220 -1230 0
-1220 -1231 0
-1220 -1232 0
-1220 -1233 0
-1220 -1234 0
-1220 -1235 0
-1220 -1236 0
-1220 -1237 0
-1220 -1238 0
-1220 -1239 0
-1220 -1240 0
-1220 -1241 0
-1220 -1242 0
-1220 -1243 0
-1220 -1244 0
-1220 -1245 0
-1220 -1246 0
-1220 -1247 0
-1220 -1248 0
-1220 -1249 0
-1220 -1250 0
-1220 -1251 0
-1220 -1252 0
-1220 -1253 0
-1220 -1254 0
-1220 -1255 0
-1220 -1256 0
-1220 -1257 0
-1220 -1258 0
-1221 -1222 0
-1221 -1223 0
-1221 -1224 0
-1221 -1225 0
-1221 -1226 0
-1221 -1227 0
-1221 -1228 0
-1221 -1229 0
-1221 -1230 0
-1221 -1231 0
-1221 -1232 0
-1221 -1233 0
-1221 -1234 0
-1221 -1235 0
-1221 -1236 0
-1221 -1237 0
-1221 -1238 0
-1221 -1239 0
-1221 -1240 0
-1221 -1241 0
-1221 -1242 0
-1221 -1243 0
-1221 -1244 0
-1221 -1245 0
-1221 -1246 0
-1221 -1247 0
-1221 -1248 0
-1221 -1249 0
-1221 -1250 0
-1221 -1251 0
-1221 -1252 0
-1221 -1253 0
-1221 -1254 0
-1221 -1255 0
-1221 -1256 0
-1221 -1257 0
-1221 -1258 0
-1222 -1223 0
-1222 -1224 0
-1222 -1225 0
-1222 -1226 0
-1222 -1227 0
-1222 -1228 0
-1222 -1229 0
-1222 -1230 0
-1222 -1231 0
-1222 -1232 0
-1222 -1233 0
-1222 -1234 0
-1222 -1235 0
-1222 -1236 0
-1222 -1237 0
-1222 -1238 0
-1222 -1239 0
-1222 -1240 0
-1222 -1241 0
-1222 -1242 0
-1222 -1243 0
-1222 -1244 0
-1222 -1245 0
-1222 -1246 0
-1222 -1247 0
-1222 -1248 0
-1222 -1249 0
-1222 -1250 0
-1222 -1251 0
-1222 -1252 0
-1222 -1253 0
-1222 -1254 0
-1222 -1255 0
-1222 -1256 0
-1222 -1257 0
-1222 -1258 0
-1223 -1224 0
-1223 -1225 0
-1223 -1226 0
-1223 -1227 0
-1223 -1228 0
-1223 -1229 0
-1223 -1230 0
-1223 -1231 0
-1223 -1232 0
-1223 -1233 0
-1223 -1234 0
-1223 -1235 0
-1223 -1236 0
-1223 -1237 0
-1223 -1238 0
-1223 -1239 0
-1223 -1240 0
-1223 -1241 0
-1223 -1242 0
-1223 -1243 0
-1223 -1244 0
-1223 -1245 0
-1223 -1246 0
-1223 -1247 0
-1223 -1248 0
-1223 -1249 0
-1223 -1250 0
-1223 -1251 0
-1223 -1252 0
-1223 -1253 0
-1223 -1254 0
-1223 -1255 0
-1223 -1256 0
-1223 -1257 0
-1223 -1258 0
-1224 -1225 0
-1224 -1226 0
-1224 -1227 0
-1224 -1228 0
-1224 -1229 0
-1224 -1230 0
-1224 -1231 0
-1224 -1232 0
-1224 -1233 0
-1224 -1234 0
-1224 -1235 0
-1224 -1236 0
-1224 -1237 0
-1224 -1238 0
-1224 -1239 0
-1224 -1240 0
-1224 -1241 0
-1224 -1242 0
-1224 -1243 0
-1224 -1244 0
-1224 -1245 0
-1224 -1246 0
-1224 -1247 0
-1224 -1248 0
-1224 -1249 0
-1224 -1250 0
-1224 -1251 0
-1224 -1252 0
-1224 -1253 0
-1224 -1254 0
-1224 -1255 0
-1224 -1256 0
-1224 -1257 0
-1224 -1258 0
-1225 -1226 0
-1225 -1227 0
-1225 -1228 0
-1225 -1229 0
-1225 -1230 0
-1225 -1231 0
-1225 -1232 0
-1225 -1233 0
-1225 -1234 0
-1225 -1235 0
-1225 -1236 0
-1225 -1237 0
-1225 -1238 0
-1225 -1239 0
-1225 -1240 0
-1225 -1241 0
-1225 -1242 0
-1225 -1243 0
-1225 -1244 0
-1225 -1245 0
-1225 -1246 0
-1225 -1247 0
-1225 -1248 0
-1225 -1249 0
-1225 -1250 0
-1225 -1251 0
-1225 -1252 0
-1225 -1253 0
-1225 -1254 0
-1225 -1255 0
-1225 -1256 0
-1225 -1257 0
-1225 -1258 0
-1226 -1227 0
-1226 -1228 0
-1226 -1229 0
-1226 -1230 0
-1226 -1231 0
-1226 -1232 0
-1226 -1233 0
-1226 -1234 0
-1226 -1235 0
-1226 -1236 0
-1226 -1237 0
-1226 -1238 0
-1226 -1239 0
-1226 -1240 0
-1226 -1241 0
-1226 -1242 0
-1226 -1243 0
-1226 -1244 0
-1226 -1245 0
-1226 -1246 0
-1226 -1247 0
-1226 -1248 0
-1226 -1249 0
-1226 -1250 0
-1226 -1251 0
-1226 -1252 0
-1226 -1253 0
-1226 -1254 0
-1226 -1255 0
-1226 -1256 0
-1226 -1257 0
-1226 -1258 0
-1227 -1228 0
-1227 -1229 0
-1227 -1230 0
-1227 -1231 0
-1227 -1232 0
-1227 -1233 0
-1227 -1234 0
-1227 -1235 0
-1227 -1236 0
-1227 -1237 0
-1227 -1238 0
-1227 -1239 0
-1227 -1240 0
-1227 -1241 0
-1227 -1242 0
-1227 -1243 0
-1227 -1244 0
-1227 -1245 0
-1227 -1246 0
-1227 -1247 0
-1227 -1248 0
-1227 -1249 0
-1227 -1250 0
-1227 -1251 0
-1227 -1252 0
-1227 -1253 0
-1227 -1254 0
-1227 -1255 0
-1227 -1256 0
-1227 -1257 0
-1227 -1258 0
-1228 -1229 0
-1228 -1230 0
-1228 -1231 0
-1228 -1232 0
-1228 -1233 0
-1228 -1234 0
-1228 -1235 0
-1228 -1236 0
-1228 -1237 0
-1228 -1238 0
-1228 -1239 0
-1228 -1240 0
-1228 -1241 0
-1228 -1242 0
-1228 -1243 0
-1228 -1244 0
-1228 -1245 0
-1228 -1246 0
-1228 -1247 0
-1228 -1248 0
-1228 -1249 0
-1228 -1250 0
-1228 -1251 0
-1228 -1252 0
-1228 -1253 0
-1228 -1254 0
-1228 -1255 0
-1228 -1256 0
-1228 -1257 0
-1228 -1258 0
-1229 -1230 0
-1229 -1231 0
-1229 -1232 0
-1229 -1233 0
-1229 -1234 0
-1229 -1235 0
-1229 -1236 0
-1229 -1237 0
-1229 -1238 0
-1229 -1239 0
-1229 -1240 0
-1229 -1241 0
-1229 -1242 0
-1229 -1243 0
-1229 -1244 0
-1229 -1245 0
-1229 -1246 0
-1229 -1247 0
-1229 -1248 0
-1229 -1249 0
-1229 -1250 0
-1229 -1251 0
-1229 -1252 0
-1229 -1253 0
-1229 -1254 0
-1229 -1255 0
-1229 -1256 0
-1229 -1257 0
-1229 -1258 0
-1230 -1231 0
-1230 -1232 0
-1230 -1233 0
-1230 -1234 0
-1230 -1235 0
-1230 -1236 0
-1230 -1237 0
-1230 -1238 0
-1230 -1239 0
-1230 -1240 0
-1230 -1241 0
-1230 -1242 0
-1230 -1243 0
-1230 -1244 0
-1230 -1245 0
-1230 -1246 0
-1230 -1247 0
-1230 -1248 0
-1230 -1249 0
-1230 -1250 0
-1230 -1251 0
-1230 -1252 0
-1230 -1253 0
-1230 -1254 0
-1230 -1255 0
-1230 -1256 0
-1230 -1257 0
-1230 -1258 0
-1231 -1232 0
-1231 -1233 0
-1231 -1234 0
-1231 -1235 0
-1231 -1236 0
-1231 -1237 0
-1231 -1238 0
-1231 -1239 0
-1231 -1240 0
-1231 -1241 0
-1231 -1242 0
-1231 -1243 0
-1231 -1244 0
-1231 -1245 0
-1231 -1246 0
-1231 -1247 0
-1231 -1248 0
-1231 -1249 0
-1231 -1250 0
-1231 -1251 0
-1231 -1252 0
-1231 -1253 0
-1231 -1254 0
-1231 -1255 0
-1231 -1256 0
-1231 -1257 0
-1231 -1258 0
-1232 -1233 0
-1232 -1234 0
-1232 -1235 0
-1232 -1236 0
-1232 -1237 0
-1232 -1238 0
-1232 -1239 0
-1232 -1240 0
-1232 -1241 0
-1232 -1242 0
-1232 -1243 0
-1232 -1244 0
-1232 -1245 0
-1232 -1246 0
-1232 -1247 0
-1232 -1248 0
-1232 -1249 0
-1232 -1250 0
-1232 -1251 0
-1232 -1252 0
-1232 -1253 0
-1232 -1254 0
-1232 -1255 0
-1232 -1256 0
-1232 -1257 0
-1232 -1258 0
-1233 -1234 0
-1233 -1235 0
-1233 -1236 0
-1233 -1237 0
-1233 -1238 0
-1233 -1239 0
-1233 -1240 0
-1233 -1241 0
-1233 -1242 0
-1233 -1243 0
-1233 -1244 0
-1233 -1245 0
-1233 -1246 0
-1233 -1247 0
-1233 -1248 0
-1233 -1249 0
-1233 -1250 0
-1233 -1251 0
-1233 -1252 0
-1233 -1253 0
-1233 -1254 0
-1233 -1255 0
-1233 -1256 0
-1233 -1257 0
-1233 -1258 0
-1234 -1235 0
-1234 -1236 0
-1234 -1237 0
-1234 -1238 0
-1234 -1239 0
-1234 -1240 0
-1234 -1241 0
-1234 -1242 0
-1234 -1243 0
-1234 -1244 0
-1234 -1245 0
-1234 -1246 0
-1234 -1247 0
-1234 -1248 0
-1234 -1249 0
-1234 -1250 0
-1234 -1251 0
-1234 -1252 0
-1234 -1253 0
-1234 -1254 0
-1234 -1255 0
-1234 -1256 0
-1234 -1257 0
-1234 -1258 0
-1235 -1236 0
-1235 -1237 0
-1235 -1238 0
-1235 -1239 0
-1235 -1240 0
-1235 -1241 0
-1235 -1242 0
-1235 -1243 0
-1235 -1244 0
-1235 -1245 0
-1235 -1246 0
-1235 -1247 0
-1235 -1248 0
-1235 -1249 0
-1235 -1250 0
-1235 -1251 0
-1235 -1252 0
-1235 -1253 0
-1235 -1254 0
-1235 -1255 0
-1235 -1256 0
-1235 -1257 0
-1235 -1258 0
-1236 -1237 0
-1236 -1238 0
-1236 -1239 0
-1236 -1240 0
-1236 -1241 0
-1236 -1242 0
-1236 -1243 0
-1236 -1244 0
-1236 -1245 0
-1236 -1246 0
-1236 -1247 0
-1236 -1248 0
-1236 -1249 0
-1236 -1250 0
-1236 -1251 0
-1236 -1252 0
-1236 -1253 0
-1236 -1254 0
-1236 -1255 0
-1236 -1256 0
-1236 -1257 0
-1236 -1258 0
-1237 -1238 0
-1237 -1239 0
-1237 -1240 0
-1237 -1241 0
-1237 -1242 0
-1237 -1243 0
-1237 -1244 0
-1237 -1245 0
-1237 -1246 0
-1237 -1247 0
-1237 -1248 0
-1237 -1249 0
-1237 -1250 0
-1237 -1251 0
-1237 -1252 0
-1237 -1253 0
-1237 -1254 0
-1237 -1255 0
-1237 -1256 0
-1237 -1257 0
-1237 -1258 0
-1238 -1239 0
-1238 -1240 0
-1238 -1241 0
-1238 -1242 0
-1238 -1243 0
-1238 -1244 0
-1238 -1245 0
-1238 -1246 0
-1238 -1247 0
-1238 -1248 0
-1238 -1249 0
-1238 -1250 0
-1238 -1251 0
-1238 -1252 0
-1238 -1253 0
-1238 -1254 0
-1238 -1255 0
-1238 -1256 0
-1238 -1257 0
-1238 -1258 0
-1239 -1240 0
-1239 -1241 0
-1239 -1242 0
-1239 -1243 0
-1239 -1244 0
-1239 -1245 0
-1239 -1246 0
-1239 -1247 0
-1239 -1248 0
-1239 -1249 0
-1239 -1250 0
-1239 -1251 0
-1239 -1252 0
-1239 -1253 0
-1239 -1254 0
-1239 -1255 0
-1239 -1256 0
-1239 -1257 0
-1239 -1258 0
-1240 -1241 0
-1240 -1242 0
-1240 -1243 0
-1240 -1244 0
-1240 -1245 0
-1240 -1246 0
-1240 -1247 0
-1240 -1248 0
-1240 -1249 0
-1240 -1250 0
-1240 -1251 0
-1240 -1252 0
-1240 -1253 0
-1240 -1254 0
-1240 -1255 0
-1240 -1256 0
-1240 -1257 0
-1240 -1258 0
-1241 -1242 0
-1241 -1243 0
-1241 -1244 0
-1241 -1245 0
-1241 -1246 0
-1241 -1247 0
-1241 -1248 0
-1241 -1249 0
-1241 -1250 0
-1241 -1251 0
-1241 -1252 0
-1241 -1253 0
-1241 -1254 0
-1241 -1255 0
-1241 -1256 0
-1241 -1257 0
-1241 -1258 0
-1242 -1243 0
-1242 -1244 0
-1242 -1245 0
-1242 -1246 0
-1242 -1247 0
-1242 -1248 0
-1242 -1249 0
-1242 -1250 0
-1242 -1251 0
-1242 -1252 0
-1242 -1253 0
-1242 -1254 0
-1242 -1255 0
-1242 -1256 0
-1242 -1257 0
-1242 -1258 0
-1243 -1244 0
-1243 -1245 0
-1243 -1246 0
-1243 -1247 0
-1243 -1248 0
-1243 -1249 0
-1243 -1250 0
-1243 -1251 0
-1243 -1252 0
-1243 -1253 0
-1243 -1254 0
-1243 -1255 0
-1243 -1256 0
-1243 -1257 0
-1243 -1258 0
-1244 -1245 0
-1244 -1246 0
-1244 -1247 0
-1244 -1248 0
-1244 -1249 0
-1244 -1250 0
-1244 -1251 0
-1244 -1252 0
-1244 -1253 0
-1244 -1254 0
-1244 -1255 0
-1244 -1256 0
-1244 -1257 0
-1244 -1258 0
-1245 -1246 0
-1245 -1247 0
-1245 -1248 0
-1245 -1249 0
-1245 -1250 0
-1245 -1251 0
-1245 -1252 0
-1245 -1253 0
-1245 -1254 0
-1245 -1255 0
-1245 -1256 0
-1245 -1257 0
-1245 -1258 0
-1246 -1247 0
-1246 -1248 0
-1246 -1249 0
-1246 -1250 0
-1246 -1251 0
-1246 -1252 0
-1246 -1253 0
-1246 -1254 0
-1246 -1255 0
-1246 -1256 0
-1246 -1257 0
-1246 -1258 0
-1247 -1248 0
-1247 -1249 0
-1247 -1250 0
-1247 -1251 0
-1247 -1252 0
-1247 -1253 0
-1247 -1254 0
-1247 -1255 0
-1247 -1256 0
-1247 -1257 0
-1247 -1258 0
-1248 -1249 0
-1248 -1250 0
-1248 -1251 0
-1248 -1252 0
-1248 -1253 0
-1248 -1254 0
-1248 -1255 0
-1248 -1256 0
-1248 -1257 0
-1248 -1258 0
-1249 -1250 0
-1249 -1251 0
-1249 -1252 0
-1249 -1253 0
-1249 -1254 0
-1249 -1255 0
-1249 -1256 0
-1249 -1257 0
-1249 -1258 0
-1250 -1251 0
-1250 -1252 0
-1250 -1253 0
-1250 -1254 0
-1250 -1255 0
-1250 -1256 0
-1250 -1257 0
-1250 -1258 0
-1251 -1252 0
-1251 -1253 0
-1251 -1254 0
-1251 -1255 0
-1251 -1256 0
-1251 -1257 0
-1251 -1258 0
-1252 -1253 0
-1252 -1254 0
-1252 -1255 0
-1252 -1256 0
-1252 -1257 0
-1252 -1258 0
-1253 -1254 0
-1253 -1255 0
-1253 -1256 0
-1253 -1257 0
-1253 -1258 0
-1254 -1255 0
-1254 -1256 0
-1254 -1257 0
-1254 -1258 0
-1255 -1256 0
-1255 -1257 0
-1255 -1258 0
-1256 -1257 0
-1256 -1258 0
-1257 -1258 0
-1166 18 1213 0
-1166 -18 1212 0
-1167 18 1214 0
-1167 -18 1213 0
-1168 18 1215 0
-1168 -18 1214 0
-1169 18 1216 0
-1169 -18 1215 0
-1170 18 1217 0
-1170 -18 1216 0
-1171 18 1218 0
-1171 -18 1217 0
-1172 18 1219 0
-1172 -18 1218 0
-1173 18 1220 0
-1173 -18 1219 0
-1174 18 1221 0
-1174 -18 1220 0
-1175 18 1222 0
-1175 -18 1221 0
-1176 18 1223 0
-1176 -18 1222 0
-1177 18 1224 0
-1177 -18 1223 0
-1178 18 1225 0
-1178 -18 1224 0
-1179 18 1226 0
-1179 -18 1225 0
-1180 18 1227 0
-1180 -18 1226 0
-1181 18 1228 0
-1181 -18 1227 0
-1182 18 1229 0
-1182 -18 1228 0
-1183 18 1230 0
-1183 -18 1229 0
-1184 18 1231 0
-1184 -18 1230 0
-1185 18 1232 0
-1185 -18 1231 0
-1186 18 1233 0
-1186 -18 1232 0
-1187 18 1234 0
-1187 -18 1233 0
-1188 18 1235 0
-1188 -18 1234 0
-1189 18 1236 0
-1189 -18 1235 0
-1190 18 1237 0
-1190 -18 1236 0
-1191 18 1238 0
-1191 -18 1237 0
-1192 18 1239 0
-1192 -18 1238 0
-1193 18 1240 0
-1193 -18 1239 0
-1194 18 1241 0
-1194 -18 1240 0
-1195 18 1242 0
-1195 -18 1241 0
-1196 18 1243 0
-1196 -18 1242 0
-1197 18 1244 0
-1197 -18 1243 0
-1198 18 1245 0
-1198 -18 1244 0
-1199 18 1246 0
-1199 -18 1245 0
-1200 18 1247 0
-1200 -18 1246 0
-1201 18 1248 0
-1201 -18 1247 0
-1202 18 1249 0
-1202 -18 1248 0
-1203 18 1250 0
-1203 -18 1249 0
-1204 18 1251 0
-1204 -18 1250 0
-1205 18 1252 0
-1205 -18 1251 0
-1206 18 1253 0
-1206 -18 1252 0
-1207 18 1254 0
-1207 -18 1253 0
-1208 18 1255 0
-1208 -18 1254 0
-1209 18 1256 0
-1209 -18 1255 0
-1210 18 1257 0
-1210 -18 1256 0
-1211 18 1258 0
-1211 -18 1257 0
1259 1260 1261 1262 1263 1264 1265 1266 1267 1268 1269 1270 1271 1272 1273 1274 1275 1276 1277 1278 1279 1280 1281 1282 1283 1284 1285 1286 1287 1288 1289 1290 1291 1292 1293 1294 1295 1296 1297 1298 1299 1300 1301 1302 1303 1304 1305 1306 0
-1259 -1260 0
-1259 -1261 0
-1259 -1262 0
-1259 -1263 0
-1259 -1264 0
-1259 -1265 0
-1259 -1266 0
-1259 -1267 0
-1259 -1268 0
-1259 -1269 0
-1259 -1270 0
-1259 -1271 0
-1259 -1272 0
-1259 -1273 0
-1259 -1274 0
-1259 -1275 0
-1259 -1276 0
-1259 -1277 0
-1259 -1278 0
-1259 -1279 0
-1259 -1280 0
-1259 -1281 0
-1259 -1282 0
-1259 -1283 0
-1259 -1284 0
-1259 -1285 0
-1259 -1286 0
-1259 -1287 0
-1259 -1288 0
-1259 -1289 0
-1259 -1290 0
-1259 -1291 0
-1259 -1292 0
-1259 -1293 0
-1259 -1294 0
-1259 -1295 0
-1259 -1296 0
-1259 -1297 0
-1259 -1298 0
-1259 -1299 0
-1259 -1300 0
-1259 -1301 0
-1259 -1302 0
-1259 -1303 0
-1259 -1304 0
-1259 -1305 0
-1259 -1306 0
-1260 -1261 0
-1260 -1262 0
-1260 -1263 0
-1260 -1264 0
-1260 -1265 0
-1260 -1266 0
-1260 -1267 0
-1260 -1268 0
-1260 -1269 0
-1260 -1270 0
-1260 -1271 0
-1260 -1272 0
-1260 -1273 0
-1260 -1274 0
-1260 -1275 0
-1260 -1276 0
-1260 -1277 0
-1260 -1278 0
-1260 -1279 0
-1260 -1280 0
-1260 -1281 0
-1260 -1282 0
-1260 -1283 0
-1260 -1284 0
-1260 -1285 0
-1260 -1286 0
-1260 -1287 0
-1260 -1288 0
-1260 -1289 0
-1260 -1290 0
-1260 -1291 0
-1260 -1292 0
-1260 -1293 0
-1260 -1294 0
-1260 -1295 0
-1260 -1296 0
-1260 -1297 0
-1260 -1298 0
-1260 -1299 0
-1260 -1300 0
-1260 -1301 0
-1260 -1302 0
-1260 -1303 0
-1260 -1304 0
-1260 -1305 0
-1260 -1306 0
-1261 -1262 0
-1261 -1263 0
-1261 -1264 0
-1261 -1265 0
-1261 -1266 0
-1261 -1267 0
-1261 -1268 0
-1261 -1269 0
-1261 -1270 0
-1261 -1271 0
-1261 -1272 0
-1261 -1273 0
-1261 -1274 0
-1261 -1275 0
-1261 -1276 0
-1261 -1277 0
-1261 -1278 0
-1261 -1279 0
-1261 -1280 0
-1261 -1281 0
-1261 -1282 0
-1261 -1283 0
-1261 -1284 0
-1261 -1285 0
-1261 -1286 0
-1261 -1287 0
-1261 -1288 0
-1261 -1289 0
-1261 -1290 0
-1261 -1291 0
-1261 -1292 0
-1261 -1293 0
-1261 -1294 0
-1261 -1295 0
-1261 -1296 0
-1261 -1297 0
-1261 -1298 0
-1261 -1299 0
-1261 -1300 0
-1261 -1301 0
-1261 -1302 0
-1261 -1303 0
-1261 -1304 0
-1261 -1305 0
-1261 -1306 0
-1262 -1263 0
-1262 -1264 0
-1262 -1265 0
-1262 -1266 0
-1262 -1267 0
-1262 -1268 0
-1262 -1269 0
-1262 -1270 0
-1262 -1271 0
-1262 -1272 0
-1262 -1273 0
-1262 -1274 0
-1262 -1275 0
-1262 -1276 0
-1262 -1277 0
-1262 -1278 0
-1262 -1279 0
-1262 -1280 0
-1262 -1281 0
-1262 -1282 0
-1262 -1283 0
-1262 -1284 0
-1262 -1285 0
-1262 -1286 0
-1262 -1287 0
-1262 -1288 0
-1262 -1289 0
-1262 -1290 0
-1262 -1291 0
-1262 -1292 0
-1262 -1293 0
-1262 -1294 0
-1262 -1295 0
-1262 -1296 0
-1262 -1297 0
-1262 -1298 0
-1262 -1299 0
-1262 -1300 0
-1262 -1301 0
-1262 -1302 0
-1262 -1303 0
-1262 -1304 0
-1262 -1305 0
-1262 -1306 0
-1263 -1264 0
-1263 -1265 0
-1263 -1266 0
-1263 -1267 0
-1263 -1268 0
-1263 -1269 0
-1263 -1270 0
-1263 -1271 0
-1263 -1272 0
-1263 -1273 0
-1263 -1274 0
-1263 -1275 0
-1263 -1276 0
-1263 -1277 0
-1263 -1278 0
-1263 -1279 0
-1263 -1280 0
-1263 -1281 0
-1263 -1282 0
-1263 -1283 0
-1263 -1284 0
-1263 -1285 0
-1263 -1286 0
-1263 -1287 0
-1263 -1288 0
-1263 -1289 0
-1263 -1290 0
-1263 -1291 0
-1263 -1292 0
-1263 -1293 0
-1263 -1294 0
-1263 -1295 0
-1263 -1296 0
-1263 -1297 0
-1263 -1298 0
-1263 -1299 0
-1263 -1300 0
-1263 -1301 0
-1263 -1302 0
-1263 -1303 0
-1263 -1304 0
-1263 -1305 0
-1263 -1306 0
-1264 -1265 0
-1264 -1266 0
-1264 -1267 0
-1264 -1268 0
-1264 -1269 0
-1264 -1270 0
-1264 -1271 0
-1264 -1272 0
-1264 -1273 0
-1264 -1274 0
-1264 -1275 0
-1264 -1276 0
-1264 -1277 0
-1264 -1278 0
-1264 -1279 0
-1264 -1280 0
-1264 -1281 0
-1264 -1282 0
-1264 -1283 0
-1264 -1284 0
-1264 -1285 0
-1264 -1286 0
-1264 -1287 0
-1264 -1288 0
-1264 -1289 0
-1264 -1290 0
-1264 -1291 0
-1264 -1292 0
-1264 -1293 0
-1264 -1294 0
-1264 -1295 0
-1264 -1296 0
-1264 -1297 0
-1264 -1298 0
-1264 -1299 0
-1264 -1300 0
-1264 -1301 0
-1264 -1302 0
-1264 -1303 0
-1264 -1304 0
-1264 -1305 0
-1264 -1306 0
-1265 -1266 0
-1265 -1267 0
-1265 -1268 0
-1265 -1269 0
-1265 -1270 0
-1265 -1271 0
-1265 -1272 0
-1265 -1273 0
-1265 -1274 0
-1265 -1275 0
-1265 -1276 0
-1265 -1277 0
-1265 -1278 0
-1265 -1279 0
-1265 -1280 0
-1265 -1281 0
-1265 -1282 0
-1265 -1283 0
-1265 -1284 0
-1265 -1285 0
-1265 -1286 0
-1265 -1287 0
-1265 -1288 0
-1265 -1289 0
-1265 -1290 0
-1265 -1291 0
-1265 -1292 0
-1265 -1293 0
-1265 -1294 0
-1265 -1295 0
-1265 -1296 0
-1265 -1297 0
-1265 -1298 0
-1265 -1299 0
-1265 -1300 0
-1265 -1301 0
-1265 -1302 0
-1265 -1303 0
-1265 -1304 0
-1265 -1305 0
-1265 -1306 0
-1266 -1267 0
-1266 -1268 0
-1266 -1269 0
-1266 -1270 0
-1266 -1271 0
-1266 -1272 0
-1266 -1273 0
-1266 -1274 0
-1266 -1275 0
-1266 -1276 0
-1266 -1277 0
-1266 -1278 0
-1266 -1279 0
-1266 -1280 0
-1266 -1281 0
-1266 -1282 0
-1266 -1283 0
-1266 -1284 0
-1266 -1285 0
-1266 -1286 0
-1266 -1287 0
-1266 -1288 0
-1266 -1289 0
-1266 -1290 0
-1266 -1291 0
-1266 -1292 0
-1266 -1293 0
-1266 -1294 0
-1266 -1295 0
-1266 -1296 0
-1266 -1297 0
-1266 -1298 0
-1266 -1299 0
-1266 -1300 0
-1266 -1301 0
-1266 -1302 0
-1266 -1303 0
-1266 -1304 0
-1266 -1305 0
-1266 -1306 0
-1267 -1268 0
-1267 -1269 0
-1267 -1270 0
-1267 -1271 0
-1267 -1272 0
-1267 -1273 0
-1267 -1274 0
-1267 -1275 0
-1267 -1276 0
-1267 -1277 0
-1267 -1278 0
-1267 -1279 0
-1267 -1280 0
-1267 -1281 0
-1267 -1282 0
-1267 -1283 0
-1267 -1284 0
-1267 -1285 0
-1267 -1286 0
-1267 -1287 0
-1267 -1288 0
-1267 -1289 0
-1267 -1290 0
-1267 -1291 0
-1267 -1292 0
-1267 -1293 0
-1267 -1294 0
-1267 -1295 0
-1267 -1296 0
-1267 -1297 0
-1267 -1298 0
-1267 -1299 0
-1267 -1300 0
-1267 -1301 0
-1267 -1302 0
-1267 -1303 0
-1267 -1304 0
-1267 -1305 0
-1267 -1306 0
-1268 -1269 0
-1268 -1270 0
-1268 -1271 0
-1268 -1272 0
-1268 -1273 0
-1268 -1274 0
-1268 -1275 0
-1268 -1276 0
-1268 -1277 0
-1268 -1278 0
-1268 -1279 0
-1268 -1280 0
-1268 -1281 0
-1268 -1282 0
-1268 -1283 0
-1268 -1284 0
-1268 -1285 0
-1268 -1286 0
-1268 -1287 0
-1268 -1288 0
-1268 -1289 0
-1268 -1290 0
-1268 -1291 0
-1268 -1292 0
-1268 -1293 0
-1268 -1294 0
-1268 -1295 0
-1268 -1296 0
-1268 -1297 0
-1268 -1298 0
-1268 -1299 0
-1268 -1300 0
-1268 -1301 0
-1268 -1302 0
-1268 -1303 0
-1268 -1304 0
-1268 -1305 0
-1268 -1306 0
-1269 -1270 0
-1269 -1271 0
-1269 -1272 0
-1269 -1273 0
-1269 -1274 0
-1269 -1275 0
-1269 -1276 0
-1269 -1277 0
-1269 -1278 0
-1269 -1279 0
-1269 -1280 0
-1269 -1281 0
-1269 -1282 0
-1269 -1283 0
-1269 -1284 0
-1269 -1285 0
-1269 -1286 0
-1269 -1287 0
-1269 -1288 0
-1269 -1289 0
-1269 -1290 0
-1269 -1291 0
-1269 -1292 0
-1269 -1293 0
-1269 -1294 0
-1269 -1295 0
-1269 -1296 0
-1269 -1297 0
-1269 -1298 0
-1269 -1299 0
-1269 -1300 0
-1269 -1301 0
-1269 -1302 0
-1269 -1303 0
-1269 -1304 0
-1269 -1305 0
-1269 -1306 0
-1270 -1271 0
-1270 -1272 0
-1270 -1273 0
-1270 -1274 0
-1270 -1275 0
-1270 -1276 0
-1270 -1277 0
-1270 -1278 0
-1270 -1279 0
-1270 -1280 0
-1270 -1281 0
-1270 -1282 0
-1270 -1283 0
-1270 -1284 0
-1270 -1285 0
-1270 -1286 0
-1270 -1287 0
-1270 -1288 0
-1270 -1289 0
-1270 -1290 0
-1270 -1291 0
-1270 -1292 0
-1270 -1293 0
-1270 -1294 0
-1270 -1295 0
-1270 -1296 0
-1270 -1297 0
-1270 -1298 0
-1270 -1299 0
-1270 -1300 0
-1270 -1301 0
-1270 -1302 0
-1270 -1303 0
-1270 -1304 0
-1270 -1305 0
-1270 -1306 0
-1271 -1272 0
-1271 -1273 0
-1271 -1274 0
-1271 -1275 0
-1271 -1276 0
-1271 -1277 0
-1271 -1278 0
-1271 -1279 0
-1271 -1280 0
-1271 -1281 0
-1271 -1282 0
-1271 -1283 0
-1271 -1284 0
-1271 -1285 0
-1271 -1286 0
-1271 -1287 0
-1271 -1288 0
-1271 -1289 0
-1271 -1290 0
-1271 -1291 0
-1271 -1292 0
-1271 -1293 0
-1271 -1294 0
-1271 -1295 0
-1271 -1296 0
-1271 -1297 0
-1271 -1298 0
-1271 -1299 0
-1271 -1300 0
-1271 -1301 0
-1271 -1302 0
-1271 -1303 0
-1271 -1304 0
-1271 -1305 0
-1271 -1306 0
-1272 -1273 0
-1272 -1274 0
-1272 -1275 0
-1272 -1276 0
-1272 -1277 0
-1272 -1278 0
-1272 -1279 0
-1272 -1280 0
-1272 -1281 0
-1272 -1282 0
-1272 -1283 0
-1272 -1284 0
-1272 -1285 0
-1272 -1286 0
-1272 -1287 0
-1272 -1288 0
-1272 -1289 0
-1272 -1290 0
-1272 -1291 0
-1272 -1292 0
-1272 -1293 0
-1272 -1294 0
-1272 -1295 0
-1272 -1296 0
-1272 -1297 0
-1272 -1298 0
-1272 -1299 0
-1272 -1300 0
-1272 -1301 0
-1272 -1302 0
-1272 -1303 0
-1272 -1304 0
-1272 -1305 0
-1272 -1306 0
-1273 -1274 0
-1273 -1275 0
-1273 -1276 0
-1273 -1277 0
-1273 -1278 0
-1273 -1279 0
-1273 -1280 0
-1273 -1281 0
-1273 -1282 0
-1273 -1283 0
-1273 -1284 0
-1273 -1285 0
-1273 -1286 0
-1273 -1287 0
-1273 -1288 0
-1273 -1289 0
-1273 -1290 0
-1273 -1291 0
-1273 -1292 0
-1273 -1293 0
-1273 -1294 0
-1273 -1295 0
-1273 -1296 0
-1273 -1297 0
-1273 -1298 0
-1273 -1299 0
-1273 -1300 0
-1273 -1301 0
-1273 -1302 0
-1273 -1303 0
-1273 -1304 0
-1273 -1305 0
-1273 -1306 0
-1274 -1275 0
-1274 -1276 0
-1274 -1277 0
-1274 -1278 0
-1274 -1279 0
-1274 -1280 0
-1274 -1281 0
-1274 -1282 0
-1274 -1283 0
-1274 -1284 0
-1274 -1285 0
-1274 -1286 0
-1274 -1287 0
-1274 -1288 0
-1274 -1289 0
-1274 -1290 0
-1274 -1291 0
-1274 -1292 0
-1274 -1293 0
-1274 -1294 0
-1274 -1295 0
-1274 -1296 0
-1274 -1297 0
-1274 -1298 0
-1274 -1299 0
-1274 -1300 0
-1274 -1301 0
-1274 -1302 0
-1274 -1303 0
-1274 -1304 0
-1274 -1305 0
-1274 -1306 0
-1275 -1276 0
-1275 -1277 0
-1275 -1278 0
-1275 -1279 0
-1275 -1280 0
-1275 -1281 0
-1275 -1282 0
-1275 -1283 0
-1275 -1284 0
-1275 -1285 0
-1275 -1286 0
-1275 -1287 0
-1275 -1288 0
-1275 -1289 0
-1275 -1290 0
-1275 -1291 0
-1275 -1292 0
-1275 -1293 0
-1275 -1294 0
-1275 -1295 0
-1275 -1296 0
-1275 -1297 0
-1275 -1298 0
-1275 -1299 0
-1275 -1300 0
-1275 -1301 0
-1275 -1302 0
-1275 -1303 0
-1275 -1304 0
-1275 -1305 0
-1275 -1306 0
-1276 -1277 0
-1276 -1278 0
-1276 -1279 0
-1276 -1280 0
-1276 -1281 0
-1276 -1282 0
-1276 -1283 0
-1276 -1284 0
-1276 -1285 0
-1276 -1286 0
-1276 -1287 0
-1276 -1288 0
-1276 -1289 0
-1276 -1290 0
-1276 -1291 0
-1276 -1292 0
-1276 -1293 0
-1276 -1294 0
-1276 -1295 0
-1276 -1296 0
-1276 -1297 0
-1276 -1298 0
-1276 -1299 0
-1276 -1300 0
-1276 -1301 0
-1276 -1302 0
-1276 -1303 0
-1276 -1304 0
-1276 -1305 0
-1276 -1306 0
-1277 -1278 0
-1277 -1279 0
-1277 -1280 0
-1277 -1281 0
-1277 -1282 0
-1277 -1283 0
-1277 -1284 0
-1277 -1285 0
-1277 -1286 0
-1277 -1287 0
-1277 -1288 0
-1277 -1289 0
-1277 -1290 0
-1277 -1291 0
-1277 -1292 0
-1277 -1293 0
-1277 -1294 0
-1277 -1295 0
-1277 -1296 0
-1277 -1297 0
-1277 -1298 0
-1277 -1299 0
-1277 -1300 0
-1277 -1301 0
-1277 -1302 0
-1277 -1303 0
-1277 -1304 0
-1277 -1305 0
-1277 -1306 0
-1278 -1279 0
-1278 -1280 0
-1278 -1281 0
-1278 -1282 0
-1278 -1283 0
-1278 -1284 0
-1278 -1285 0
-1278 -1286 0
-1278 -1287 0
-1278 -1288 0
-1278 -1289 0
-1278 -1290 0
-1278 -1291 0
-1278 -1292 0
-1278 -1293 0
-1278 -1294 0
-1278 -1295 0
-1278 -1296 0
-1278 -1297 0
-1278 -1298 0
-1278 -1299 0
-1278 -1300 0
-1278 -1301 0
-1278 -1302 0
-1278 -1303 0
-1278 -1304 0
-1278 -1305 0
-1278 -1306 0
-1279 -1280 0
-1279 -1281 0
-1279 -1282 0
-1279 -1283 0
-1279 -1284 0
-1279 -1285 0
-1279 -1286 0
-1279 -1287 0
-1279 -1288 0
-1279 -1289 0
-1279 -1290 0
-1279 -1291 0
-1279 -1292 0
-1279 -1293 0
-1279 -1294 0
-1279 -1295 0
-1279 -1296 0
-1279 -1297 0
-1279 -1298 0
-1279 -1299 0
-1279 -1300 0
-1279 -1301 0
-1279 -1302 0
-1279 -1303 0
-1279 -1304 0
-1279 -1305 0
-1279 -1306 0
-1280 -1281 0
-1280 -1282 0
-1280 -1283 0
-1280 -1284 0
-1280 -1285 0
-1280 -1286 0
-1280 -1287 0
-1280 -1288 0
-1280 -1289 0
-1280 -1290 0
-1280 -1291 0
-1280 -1292 0
-1280 -1293 0
-1280 -1294 0
-1280 -1295 0
-1280 -1296 0
-1280 -1297 0
-1280 -1298 0
-1280 -1299 0
-1280 -1300 0
-1280 -1301 0
-1280 -1302 0
-1280 -1303 0
-1280 -1304 0
-1280 -1305 0
-1280 -1306 0
-1281 -1282 0
-1281 -1283 0
-1281 -1284 0
-1281 -1285 0
-1281 -1286 0
-1281 -1287 0
-1281 -1288 0
-1281 -1289 0
-1281 -1290 0
-1281 -1291 0
-1281 -1292 0
-1281 -1293 0
-1281 -1294 0
-1281 -1295 0
-1281 -1296 0
-1281 -1297 0
-1281 -1298 0
-1281 -1299 0
-1281 -1300 0
-1281 -1301 0
-1281 -1302 0
-1281 -1303 0
-1281 -1304 0
-1281 -1305 0
-1281 -1306 0
-1282 -1283 0
-1282 -1284 0
-1282 -1285 0
-1282 -1286 0
-1282 -1287 0
-1282 -1288 0
-1282 -1289 0
-1282 -1290 0
-1282 -1291 0
-1282 -1292 0
-1282 -1293 0
-1282 -1294 0
-1282 -1295 0
-1282 -1296 0
-1282 -1297 0
-1282 -1298 0
-1282 -1299 0
-1282 -1300 0
-1282 -1301 0
-1282 -1302 0
-1282 -1303 0
-1282 -1304 0
-1282 -1305 0
-1282 -1306 0
-1283 -1284 0
-1283 -1285 0
-1283 -1286 0
-1283 -1287 0
-1283 -1288 0
-1283 -1289 0
-1283 -1290 0
-1283 -1291 0
-1283 -1292 0
-1283 -1293 0
-1283 -1294 0
-1283 -1295 0
-1283 -1296 0
-1283 -1297 0
-1283 -1298 0
-1283 -1299 0
-1283 -1300 0
-1283 -1301 0
-1283 -1302 0
-1283 -1303 0
-1283 -1304 0
-1283 -1305 0
-1283 -1306 0
-1284 -1285 0
-1284 -1286 0
-1284 -1287 0
-1284 -1288 0
-1284 -1289 0
-1284 -1290 0
-1284 -1291 0
-1284 -1292 0
-1284 -1293 0
-1284 -1294 0
-1284 -1295 0
-1284 -1296 0
-1284 -1297 0
-1284 -1298 0
-1284 -1299 0
-1284 -1300 0
-1284 -1301 0
-1284 -1302 0
-1284 -1303 0
-1284 -1304 0
-1284 -1305 0
-1284 -1306 0
-1285 -1286 0
-1285 -1287 0
-1285 -1288 0
-1285 -1289 0
-1285 -1290 0
-1285 -1291 0
-1285 -1292 0
-1285 -1293 0
-1285 -1294 0
-1285 -1295 0
-1285 -1296 0
-1285 -1297 0
-1285 -1298 0
-1285 -1299 0
-1285 -1300 0
-1285 -1301 0
-1285 -1302 0
-1285 -1303 0
-1285 -1304 0
-1285 -1305 0
-1285 -1306 0
-1286 -1287 0
-1286 -1288 0
-1286 -1289 0
-1286 -1290 0
-1286 -1291 0
-1286 -1292 0
-1286 -1293 0
-1286 -1294 0
-1286 -1295 0
-1286 -1296 0
-1286 -1297 0
-1286 -1298 0
-1286 -1299 0
-1286 -1300 0
-1286 -1301 0
-1286 -1302 0
-1286 -1303 0
-1286 -1304 0
-1286 -1305 0
-1286 -1306 0
-1287 -1288 0
-1287 -1289 0
-1287 -1290 0
-1287 -1291 0
-1287 -1292 0
-1287 -1293 0
-1287 -1294 0
-1287 -1295 0
-1287 -1296 0
-1287 -1297 0
-1287 -1298 0
-1287 -1299 0
-1287 -1300 0
-1287 -1301 0
-1287 -1302 0
-1287 -1303 0
-1287 -1304 0
-1287 -1305 0
-1287 -1306 0
-1288 -1289 0
-1288 -1290 0
-1288 -1291 0
-1288 -1292 0
-1288 -1293 0
-1288 -1294 0
-1288 -1295 0
-1288 -1296 0
-1288 -1297 0
-1288 -1298 0
-1288 -1299 0
-1288 -1300 0
-1288 -1301 0
-1288 -1302 0
-1288 -1303 0
-1288 -1304 0
-1288 -1305 0
-1288 -1306 0
-1289 -1290 0
-1289 -1291 0
-1289 -1292 0
-1289 -1293 0
-1289 -1294 0
-1289 -1295 0
-1289 -1296 0
-1289 -1297 0
-1289 -1298 0
-1289 -1299 0
-1289 -1300 0
-1289 -1301 0
-1289 -1302 0
-1289 -1303 0
-1289 -1304 0
-1289 -1305 0
-1289 -1306 0
-1290 -1291 0
-1290 -1292 0
-1290 -1293 0
-1290 -1294 0
-1290 -1295 0
-1290 -1296 0
-1290 -1297 0
-1290 -1298 0
-1290 -1299 0
-1290 -1300 0
-1290 -1301 0
-1290 -1302 0
-1290 -1303 0
-1290 -1304 0
-1290 -1305 0
-1290 -1306 0
-1291 -1292 0
-1291 -1293 0
-1291 -1294 0
-1291 -1295 0
-1291 -1296 0
-1291 -1297 0
-1291 -1298 0
-1291 -1299 0
-1291 -1300 0
-1291 -1301 0
-1291 -1302 0
-1291 -1303 0
-1291 -1304 0
-1291 -1305 0
-1291 -1306 0
-1292 -1293 0
-1292 -1294 0
-1292 -1295 0
-1292 -1296 0
-1292 -1297 0
-1292 -1298 0
-1292 -1299 0
-1292 -1300 0
-1292 -1301 0
-1292 -1302 0
-1292 -1303 0
-1292 -1304 0
-1292 -1305 0
-1292 -1306 0
-1293 -1294 0
-1293 -1295 0
-1293 -1296 0
-1293 -1297 0
-1293 -1298 0
-1293 -1299 0
-1293 -1300 0
-1293 -1301 0
-1293 -1302 0
-1293 -1303 0
-1293 -1304 0
-1293 -1305 0
-1293 -1306 0
-1294 -1295 0
-1294 -1296 0
-1294 -1297 0
-1294 -1298 0
-1294 -1299 0
-1294 -1300 0
-1294 -1301 0
-1294 -1302 0
-1294 -1303 0
-1294 -1304 0
-1294 -1305 0
-1294 -1306 0
-1295 -1296 0
-1295 -1297 0
-1295 -1298 0
-1295 -1299 0
-1295 -1300 0
-1295 -1301 0
-1295 -1302 0
-1295 -1303 0
-1295 -1304 0
-1295 -1305 0
-1295 -1306 0
-1296 -1297 0
-1296 -1298 0
-1296 -1299 0
-1296 -1300 0
-1296 -1301 0
-1296 -1302 0
-1296 -1303 0
-1296 -1304 0
-1296 -1305 0
-1296 -1306 0
-1297 -1298 0
-1297 -1299 0
-1297 -1300 0
-1297 -1301 0
-1297 -1302 0
-1297 -1303 0
-1297 -1304 0
-1297 -1305 0
-1297 -1306 0
-1298 -1299 0
-1298 -1300 0
-1298 -1301 0
-1298 -1302 0
-1298 -1303 0
-1298 -1304 0
-1298 -1305 0
-1298 -1306 0
-1299 -1300 0
-1299 -1301 0
-1299 -1302 0
-1299 -1303 0
-1299 -1304 0
-1299 -1305 0
-1299 -1306 0
-1300 -1301 0
-1300 -1302 0
-1300 -1303 0
-1300 -1304 0
-1300 -1305 0
-1300 -1306 0
-1301 -1302 0
-1301 -1303 0
-1301 -1304 0
-1301 -1305 0
-1301 -1306 0
-1302 -1303 0
-1302 -1304 0
-1302 -1305 0
-1302 -1306 0
-1303 -1304 0
-1303 -1305 0
-1303 -1306 0
-1304 -1305 0
-1304 -1306 0
-1305 -1306 0
-1212 21 1260 0
-1212 -21 1259 0
-1213 21 1261 0
-1213 -21 1260 0
-1214 21 1262 0
-1214 -21 1261 0
-1215 21 1263 0
-1215 -21 1262 0
-1216 21 1264 0
-1216 -21 1263 0
-1217 21 1265 0
-1217 -21 1264 0
-1218 21 1266 0
-1218 -21 1265 0
-1219 21 1267 0
-1219 -21 1266 0
-1220 21 1268 0
-1220 -21 1267 0
-1221 21 1269 0
-1221 -21 1268 0
-1222 21 1270 0
-1222 -21 1269 0
-1223 21 1271 0
-1223 -21 1270 0
-1224 21 1272 0
-1224 -21 1271 0
-1225 21 1273 0
-1225 -21 1272 0
-1226 21 1274 0
-1226 -21 1273 0
-1227 21 1275 0
-1227 -21 1274 0
-1228 21 1276 0
-1228 -21 1275 0
-1229 21 1277 0
-1229 -21 1276 0
-1230 21 1278 0
-1230 -21 1277 0
-1231 21 1279 0
-1231 -21 1278 0
-1232 21 1280 0
-1232 -21 1279 0
-1233 21 1281 0
-1233 -21 1280 0
-1234 21 1282 0
-1234 -21 1281 0
-1235 21 1283 0
-1235 -21 1282 0
-1236 21 1284 0
-1236 -21 1283 0
-1237 21 1285 0
-1237 -21 1284 0
-1238 21 1286 0
-1238 -21 1285 0
-1239 21 1287 0
-1239 -21 1286 0
-1240 21 1288 0
-1240 -21 1287 0
-1241 21 1289 0
-1241 -21 1288 0
-1242 21 1290 0
-1242 -21 1289 0
-1243 21 1291 0
-1243 -21 1290 0
-1244 21 1292 0
-1244 -21 1291 0
-1245 21 1293 0
-1245 -21 1292 0
-1246 21 1294 0
-1246 -21 1293 0
-1247 21 1295 0
-1247 -21 1294 0
-1248 21 1296 0
-1248 -21 1295 0
-1249 21 1297 0
-1249 -21 1296 0
-1250 21 1298 0
-1250 -21 1297 0
-1251 21 1299 0
-1251 -21 1298 0
-1252 21 1300 0
-1252 -21 1299 0
-1253 21 1301 0
-1253 -21 1300 0
-1254 21 1302 0
-1254 -21 1301 0
-1255 21 1303 0
-1255 -21 1302 0
-1256 21 1304 0
-1256 -21 1303 0
-1257 21 1305 0
-1257 -21 1304 0
-1258 21 1306 0
-1258 -21 1305 0
1307 1308 1309 1310 1311 1312 1313 1314 1315 1316 1317 1318 1319 1320 1321 1322 1323 1324 1325 1326 1327 1328 1329 1330 1331 1332 1333 1334 1335 1336 1337 1338 1339 1340 1341 1342 1343 1344 1345 1346 1347 1348 1349 1350 1351 1352 1353 1354 1355 0
-1307 -1308 0
-1307 -1309 0
-1307 -1310 0
-1307 -1311 0
-1307 -1312 0
-1307 -1313 0
-1307 -1314 0
-1307 -1315 0
-1307 -1316 0
-1307 -1317 0
-1307 -1318 0
-1307 -1319 0
-1307 -1320 0
-1307 -1321 0
-1307 -1322 0
-1307 -1323 0
-1307 -1324 0
-1307 -1325 0
-1307 -1326 0
-1307 -1327 0
-1307 -1328 0
-1307 -1329 0
-1307 -1330 0
-1307 -1331 0
-1307 -1332 0
-1307 -1333 0
-1307 -1334 0
-1307 -1335 0
-1307 -1336 0
-1307 -1337 0
-1307 -1338 0
-1307 -1339 0
-1307 -1340 0
-1307 -1341 0
-1307 -1342 0
-1307 -1343 0
-1307 -1344 0
-1307 -1345 0
-1307 -1346 0
-1307 -1347 0
-1307 -1348 0
-1307 -1349 0
-1307 -1350 0
-1307 -1351 0
-1307 -1352 0
-1307 -1353 0
-1307 -1354 0
-1307 -1355 0
-1308 -1309 0
-1308 -1310 0
-1308 -1311 0
-1308 -1312 0
-1308 -1313 0
-1308 -1314 0
-1308 -1315 0
-1308 -1316 0
-1308 -1317 0
-1308 -1318 0
-1308 -1319 0
-1308 -1320 0
-1308 -1321 0
-1308 -1322 0
-1308 -1323 0
-1308 -1324 0
-1308 -1325 0
-1308 -1326 0
-1308 -1327 0
-1308 -1328 0
-1308 -1329 0
-1308 -1330 0
-1308 -1331 0
-1308 -1332 0
-1308 -1333 0
-1308 -1334 0
-1308 -1335 0
-1308 -1336 0
-1308 -1337 0
-1308 -1338 0
-1308 -1339 0
-1308 -1340 0
-1308 -1341 0
-1308 -1342 0
-1308 -1343 0
-1308 -1344 0
-1308 -1345 0
-1308 -1346 0
-1308 -1347 0
-1308 -1348 0
-1308 -1349 0
-1308 -1350 0
-1308 -1351 0
-1308 -1352 0
-1308 -1353 0
-1308 -1354 0
-1308 -1355 0
-1309 -1310 0
-1309 -1311 0
-1309 -1312 0
-1309 -1313 0
-1309 -1314 0
-1309 -1315 0
-1309 -1316 0
-1309 -1317 0
-1309 -1318 0
-1309 -1319 0
-1309 -1320 0
-1309 -1321 0
-1309 -1322 0
-1309 -1323 0
-1309 -1324 0
-1309 -1325 0
-1309 -1326 0
-1309 -1327 0
-1309 -1328 0
-1309 -1329 0
-1309 -1330 0
-1309 -1331 0
-1309 -1332 0
-1309 -1333 0
-1309 -1334 0
-1309 -1335 0
-1309 -1336 0
-1309 -1337 0
-1309 -1338 0
-1309 -1339 0
-1309 -1340 0
-1309 -1341 0
-1309 -1342 0
-1309 -1343 0
-1309 -1344 0
-1309 -1345 0
-1309 -1346 0
-1309 -1347 0
-1309 -1348 0
-1309 -1349 0
-1309 -1350 0
-1309 -1351 0
-1309 -1352 0
-1309 -1353 0
-1309 -1354 0
-1309 -1355 0
-1310 -1311 0
-1310 -1312 0
-1310 -1313 0
-1310 -1314 0
-1310 -1315 0
-1310 -1316 0
-1310 -1317 0
-1310 -1318 0
-1310 -1319 0
-1310 -1320 0
-1310 -1321 0
-1310 -1322 0
-1310 -1323 0
-1310 -1324 0
-1310 -1325 0
-1310 -1326 0
-1310 -1327 0
-1310 -1328 0
-1310 -1329 0
-1310 -1330 0
-1310 -1331 0
-1310 -1332 0
-1310 -1333 0
-1310 -1334 0
-1310 -1335 0
-1310 -1336 0
-1310 -1337 0
-1310 -1338 0
-1310 -1339 0
-1310 -1340 0
-1310 -1341 0
-1310 -1342 0
-1310 -1343 0
-1310 -1344 0
-1310 -1345 0
-1310 -1346 0
-1310 -1347 0
-1310 -1348 0
-1310 -1349 0
-1310 -1350 0
-1310 -1351 0
-1310 -1352 0
-1310 -1353 0
-1310 -1354 0
-1310 -1355 0
-1311 -1312 0
-1311 -1313 0
-1311 -1314 0
-1311 -1315 0
-1311 -1316 0
-1311 -1317 0
-1311 -1318 0
-1311 -1319 0
-1311 -1320 0
-1311 -1321 0
-1311 -1322 0
-1311 -1323 0
-1311 -1324 0
-1311 -1325 0
-1311 -1326 0
-1311 -1327 0
-1311 -1328 0
-1311 -1329 0
-1311 -1330 0
-1311 -1331 0
-1311 -1332 0
-1311 -1333 0
-1311 -1334 0
-1311 -1335 0
-1311 -1336 0
-1311 -1337 0
-1311 -1338 0
-1311 -1339 0
-1311 -1340 0
-1311 -1341 0
-1311 -1342 0
-1311 -1343 0
-1311 -1344 0
-1311 -1345 0
-1311 -1346 0
-1311 -1347 0
-1311 -1348 0
-1311 -1349 0
-1311 -1350 0
-1311 -1351 0
-1311 -1352 0
-1311 -1353 0
-1311 -1354 0
-1311 -1355 0
-1312 -1313 0
-1312 -1314 0
-1312 -1315 0
-1312 -1316 0
-1312 -1317 0
-1312 -1318 0
-1312 -1319 0
-1312 -1320 0
-1312 -1321 0
-1312 -1322 0
-1312 -1323 0
-1312 -1324 0
-1312 -1325 0
-1312 -1326 0
-1312 -1327 0
-1312 -1328 0
-1312 -1329 0
-1312 -1330 0
-1312 -1331 0
-1312 -1332 0
-1312 -1333 0
-1312 -1334 0
-1312 -1335 0
-1312 -1336 0
-1312 -1337 0
-1312 -1338 0
-1312 -1339 0
-1312 -1340 0
-1312 -1341 0
-1312 -1342 0
-1312 -1343 0
-1312 -1344 0
-1312 -1345 0
-1312 -1346 0
-1312 -1347 0
-1312 -1348 0
-1312 -1349 0
-1312 -1350 0
-1312 -1351 0
-1312 -1352 0
-1312 -1353 0
-1312 -1354 0
-1312 -1355 0
-1313 -1314 0
-1313 -1315 0
-1313 -1316 0
-1313 -1317 0
-1313 -1318 0
-1313 -1319 0
-1313 -1320 0
-1313 -1321 0
-1313 -1322 0
-1313 -1323 0
-1313 -1324 0
-1313 -1325 0
-1313 -1326 0
-1313 -1327 0
-1313 -1328 0
-1313 -1329 0
-1313 -1330 0
-1313 -1331 0
-1313 -1332 0
-1313 -1333 0
-1313 -1334 0
-1313 -1335 0
-1313 -1336 0
-1313 -1337 0
-1313 -1338 0
-1313 -1339 0
-1313 -1340 0
-1313 -1341 0
-1313 -1342 0
-1313 -1343 0
-1313 -1344 0
-1313 -1345 0
-1313 -1346 0
-1313 -1347 0
-1313 -1348 0
-1313 -1349 0
-1313 -1350 0
-1313 -1351 0
-1313 -1352 0
-1313 -1353 0
-1313 -1354 0
-1313 -1355 0
-1314 -1315 0
-1314 -1316 0
-1314 -1317 0
-1314 -1318 0
-1314 -1319 0
-1314 -1320 0
-1314 -1321 0
-1314 -1322 0
-1314 -1323 0
-1314 -1324 0
-1314 -1325 0
-1314 -1326 0
-1314 -1327 0
-1314 -1328 0
-1314 -1329 0
-1314 -1330 0
-1314 -1331 0
-1314 -1332 0
-1314 -1333 0
-1314 -1334 0
-1314 -1335 0
-1314 -1336 0
-1314 -1337 0
-1314 -1338 0
-1314 -1339 0
-1314 -1340 0
-1314 -1341 0
-1314 -1342 0
-1314 -1343 0
-1314 -1344 0
-1314 -1345 0
-1314 -1346 0
-1314 -1347 0
-1314 -1348 0
-1314 -1349 0
-1314 -1350 0
-1314 -1351 0
-1314 -1352 0
-1314 -1353 0
-1314 -1354 0
-1314 -1355 0
-1315 -1316 0
-1315 -1317 0
-1315 -1318 0
-1315 -1319 0
-1315 -1320 0
-1315 -1321 0
-1315 -1322 0
-1315 -1323 0
-1315 -1324 0
-1315 -1325 0
-1315 -1326 0
-1315 -1327 0
-1315 -1328 0
-1315 -1329 0
-1315 -1330 0
-1315 -1331 0
-1315 -1332 0
-1315 -1333 0
-1315 -1334 0
-1315 -1335 0
-1315 -1336 0
-1315 -1337 0
-1315 -1338 0
-1315 -1339 0
-1315 -1340 0
-1315 -1341 0
-1315 -1342 0
-1315 -1343 0
-1315 -1344 0
-1315 -1345 0
-1315 -1346 0
-1315 -1347 0
-1315 -1348 0
-1315 -1349 0
-1315 -1350 0
-1315 -1351 0
-1315 -1352 0
-1315 -1353 0
-1315 -1354 0
-1315 -1355 0
-1316 -1317 0
-1316 -1318 0
-1316 -1319 0
-1316 -1320 0
-1316 -1321 0
-1316 -1322 0
-1316 -1323 0
-1316 -1324 0
-1316 -1325 0
-1316 -1326 0
-1316 -1327 0
-1316 -1328 0
-1316 -1329 0
-1316 -1330 0
-1316 -1331 0
-1316 -1332 0
-1316 -1333 0
-1316 -1334 0
-1316 -1335 0
-1316 -1336 0
-1316 -1337 0
-1316 -1338 0
-1316 -1339 0
-1316 -1340 0
-1316 -1341 0
-1316 -1342 0
-1316 -1343 0
-1316 -1344 0
-1316 -1345 0
-1316 -1346 0
-1316 -1347 0
-1316 -1348 0
-1316 -1349 0
-1316 -1350 0
-1316 -1351 0
-1316 -1352 0
-1316 -1353 0
-1316 -1354 0
-1316 -1355 0
-1317 -1318 0
-1317 -1319 0
-1317 -1320 0
-1317 -1321 0
-1317 -1322 0
-1317 -1323 0
-1317 -1324 0
-1317 -1325 0
-1317 -1326 0
-1317 -1327 0
-1317 -1328 0
-1317 -1329 0
-1317 -1330 0
-1317 -1331 0
-1317 -1332 0
-1317 -1333 0
-1317 -1334 0
-1317 -1335 0
-1317 -1336 0
-1317 -1337 0
-1317 -1338 0
-1317 -1339 0
-1317 -1340 0
-1317 -1341 0
-1317 -1342 0
-1317 -1343 0
-1317 -1344 0
-1317 -1345 0
-1317 -1346 0
-1317 -1347 0
-1317 -1348 0
-1317 -1349 0
-1317 -1350 0
-1317 -1351 0
-1317 -1352 0
-1317 -1353 0
-1317 -1354 0
-1317 -1355 0
-1318 -1319 0
-1318 -1320 0
-1318 -1321 0
-1318 -1322 0
-1318 -1323 0
-1318 -1324 0
-1318 -1325 0
-1318 -1326 0
-1318 -1327 0
-1318 -1328 0
-1318 -1329 0
-1318 -1330 0
-1318 -1331 0
-1318 -1332 0
-1318 -1333 0
-1318 -1334 0
-1318 -1335 0
-1318 -1336 0
-1318 -1337 0
-1318 -1338 0
-1318 -1339 0
-1318 -1340 0
-1318 -1341 0
-1318 -1342 0
-1318 -1343 0
-1318 -1344 0
-1318 -1345 0
-1318 -1346 0
-1318 -1347 0
-1318 -1348 0
-1318 -1349 0
-1318 -1350 0
-1318 -1351 0
-1318 -1352 0
-1318 -1353 0
-1318 -1354 0
-1318 -1355 0
-1319 -1320 0
-1319 -1321 0
-1319 -1322 0
-1319 -1323 0
-1319 -1324 0
-1319 -1325 0
-1319 -1326 0
-1319 -1327 0
-1319 -1328 0
-1319 -1329 0
-1319 -1330 0
-1319 -1331 0
-1319 -1332 0
-1319 -1333 0
-1319 -1334 0
-1319 -1335 0
-1319 -1336 0
-1319 -1337 0
-1319 -1338 0
-1319 -1339 0
-1319 -1340 0
-1319 -1341 0
-1319 -1342 0
-1319 -1343 0
-1319 -1344 0
-1319 -1345 0
-1319 -1346 0
-1319 -1347 0
-1319 -1348 0
-1319 -1349 0
-1319 -1350 0
-1319 -1351 0
-1319 -1352 0
-1319 -1353 0
-1319 -1354 0
-1319 -1355 0
-1320 -1321 0
-1320 -1322 0
-1320 -1323 0
-1320 -1324 0
-1320 -1325 0
-1320 -1326 0
-1320 -1327 0
-1320 -1328 0
-1320 -1329 0
-1320 -1330 0
-1320 -1331 0
-1320 -1332 0
-1320 -1333 0
-1320 -1334 0
-1320 -1335 0
-1320 -1336 0
-1320 -1337 0
-1320 -1338 0
-1320 -1339 0
-1320 -1340 0
-1320 -1341 0
-1320 -1342 0
-1320 -1343 0
-1320 -1344 0
-1320 -1345 0
-1320 -1346 0
-1320 -1347 0
-1320 -1348 0
-1320 -1349 0
-1320 -1350 0
-1320 -1351 0
-1320 -1352 0
-1320 -1353 0
-1320 -1354 0
-1320 -1355 0
-1321 -1322 0
-1321 -1323 0
-1321 -1324 0
-1321 -1325 0
-1321 -1326 0
-1321 -1327 0
-1321 -1328 0
-1321 -1329 0
-1321 -1330 0
-1321 -1331 0
-1321 -1332 0
-1321 -1333 0
-1321 -1334 0
-1321 -1335 0
-1321 -1336 0
-1321 -1337 0
-1321 -1338 0
-1321 -1339 0
-1321 -1340 0
-1321 -1341 0
-1321 -1342 0
-1321 -1343 0
-1321 -1344 0
-1321 -1345 0
-1321 -1346 0
-1321 -1347 0
-1321 -1348 0
-1321 -1349 0
-1321 -1350 0
-1321 -1351 0
-1321 -1352 0
-1321 -1353 0
-1321 -1354 0
-1321 -1355 0
-1322 -1323 0
-1322 -1324 0
-1322 -1325 0
-1322 -1326 0
-1322 -1327 0
-1322 -1328 0
-1322 -1329 0
-1322 -1330 0
-1322 -1331 0
-1322 -1332 0
-1322 -1333 0
-1322 -1334 0
-1322 -1335 0
-1322 -1336 0
-1322 -1337 0
-1322 -1338 0
-1322 -1339 0
-1322 -1340 0
-1322 -1341 0
-1322 -1342 0
-1322 -1343 0
-1322 -1344 0
-1322 -1345 0
-1322 -1346 0
-1322 -1347 0
-1322 -1348 0
-1322 -1349 0
-1322 -1350 0
-1322 -1351 0
-1322 -1352 0
-1322 -1353 0
-1322 -1354 0
-1322 -1355 0
-1323 -1324 0
-1323 -1325 0
-1323 -1326 0
-1323 -1327 0
-1323 -1328 0
-1323 -1329 0
-1323 -1330 0
-1323 -1331 0
-1323 -1332 0
-1323 -1333 0
-1323 -1334 0
-1323 -1335 0
-1323 -1336 0
-1323 -1337 0
-1323 -1338 0
-1323 -1339 0
-1323 -1340 0
-1323 -1341 0
-1323 -1342 0
-1323 -1343 0
-1323 -1344 0
-1323 -1345 0
-1323 -1346 0
-1323 -1347 0
-1323 -1348 0
-1323 -1349 0
-1323 -1350 0
-1323 -1351 0
-1323 -1352 0
-1323 -1353 0
-1323 -1354 0
-1323 -1355 0
-1324 -1325 0
-1324 -1326 0
-1324 -1327 0
-1324 -1328 0
-1324 -1329 0
-1324 -1330 0
-1324 -1331 0
-1324 -1332 0
-1324 -1333 0
-1324 -1334 0
-1324 -1335 0
-1324 -1336 0
-1324 -1337 0
-1324 -1338 0
-1324 -1339 0
-1324 -1340 0
-1324 -1341 0
-1324 -1342 0
-1324 -1343 0
-1324 -1344 0
-1324 -1345 0
-1324 -1346 0
-1324 -1347 0
-1324 -1348 0
-1324 -1349 0
-1324 -1350 0
-1324 -1351 0
-1324 -1352 0
-1324 -1353 0
-1324 -1354 0
-1324 -1355 0
-1325 -1326 0
-1325 -1327 0
-1325 -1328 0
-1325 -1329 0
-1325 -1330 0
-1325 -1331 0
-1325 -1332 0
-1325 -1333 0
-1325 -1334 0
-1325 -1335 0
-1325 -1336 0
-1325 -1337 0
-1325 -1338 0
-1325 -1339 0
-1325 -1340 0
-1325 -1341 0
-1325 -1342 0
-1325 -1343 0
-1325 -1344 0
-1325 -1345 0
-1325 -1346 0
-1325 -1347 0
-1325 -1348 0
-1325 -1349 0
-1325 -1350 0
-1325 -1351 0
-1325 -1352 0
-1325 -1353 0
-1325 -1354 0
-1325 -1355 0
-1326 -1327 0
-1326 -1328 0
-1326 -1329 0
-1326 -1330 0
-1326 -1331 0
-1326 -1332 0
-1326 -1333 0
-1326 -1334 0
-1326 -1335 0
-1326 -1336 0
-1326 -1337 0
-1326 -1338 0
-1326 -1339 0
-1326 -1340 0
-1326 -1341 0
-1326 -1342 0
-1326 -1343 0
-1326 -1344 0
-1326 -1345 0
-1326 -1346 0
-1326 -1347 0
-1326 -1348 0
-1326 -1349 0
-1326 -1350 0
-1326 -1351 0
-1326 -1352 0
-1326 -1353 0
-1326 -1354 0
-1326 -1355 0
-1327 -1328 0
-1327 -1329 0
-1327 -1330 0
-1327 -1331 0
-1327 -1332 0
-1327 -1333 0
-1327 -1334 0
-1327 -1335 0
-1327 -1336 0
-1327 -1337 0
-1327 -1338 0
-1327 -1339 0
-1327 -1340 0
-1327 -1341 0
-1327 -1342 0
-1327 -1343 0
-1327 -1344 0
-1327 -1345 0
-1327 -1346 0
-1327 -1347 0
-1327 -1348 0
-1327 -1349 0
-1327 -1350 0
-1327 -1351 0
-1327 -1352 0
-1327 -1353 0
-1327 -1354 0
-1327 -1355 0
-1328 -1329 0
-1328 -1330 0
-1328 -1331 0
-1328 -1332 0
-1328 -1333 0
-1328 -1334 0
-1328 -1335 0
-1328 -1336 0
-1328 -1337 0
-1328 -1338 0
-1328 -1339 0
-1328 -1340 0
-1328 -1341 0
-1328 -1342 0
-1328 -1343 0
-1328 -1344 0
-1328 -1345 0
-1328 -1346 0
-1328 -1347 0
-1328 -1348 0
-1328 -1349 0
-1328 -1350 0
-1328 -1351 0
-1328 -1352 0
-1328 -1353 0
-1328 -1354 0
-1328 -1355 0
-1329 -1330 0
-1329 -1331 0
-1329 -1332 0
-1329 -1333 0
-1329 -1334 0
-1329 -1335 0
-1329 -1336 0
-1329 -1337 0
-1329 -1338 0
-1329 -1339 0
-1329 -1340 0
-1329 -1341 0
-1329 -1342 0
-1329 -1343 0
-1329 -1344 0
-1329 -1345 0
-1329 -1346 0
-1329 -1347 0
-1329 -1348 0
-1329 -1349 0
-1329 -1350 0
-1329 -1351 0
-1329 -1352 0
-1329 -1353 0
-1329 -1354 0
-1329 -1355 0
-1330 -1331 0
-1330 -1332 0
-1330 -1333 0
-1330 -1334 0
-1330 -1335 0
-1330 -1336 0
-1330 -1337 0
-1330 -1338 0
-1330 -1339 0
-1330 -1340 0
-1330 -1341 0
-1330 -1342 0
-1330 -1343 0
-1330 -1344 0
-1330 -1345 0
-1330 -1346 0
-1330 -1347 0
-1330 -1348 0
-1330 -1349 0
-1330 -1350 0
-1330 -1351 0
-1330 -1352 0
-1330 -1353 0
-1330 -1354 0
-1330 -1355 0
-1331 -1332 0
-1331 -1333 0
-1331 -1334 0
-1331 -1335 0
-1331 -1336 0
-1331 -1337 0
-1331 -1338 0
-1331 -1339 0
-1331 -1340 0
-1331 -1341 0
-1331 -1342 0
-1331 -1343 0
-1331 -1344 0
-1331 -1345 0
-1331 -1346 0
-1331 -1347 0
-1331 -1348 0
-1331 -1349 0
-1331 -1350 0
-1331 -1351 0
-1331 -1352 0
-1331 -1353 0
-1331 -1354 0
-1331 -1355 0
-1332 -1333 0
-1332 -1334 0
-1332 -1335 0
-1332 -1336 0
-1332 -1337 0
-1332 -1338 0
-1332 -1339 0
-1332 -1340 0
-1332 -1341 0
-1332 -1342 0
-1332 -1343 0
-1332 -1344 0
-1332 -1345 0
-1332 -1346 0
-1332 -1347 0
-1332 -1348 0
-1332 -1349 0
-1332 -1350 0
-1332 -1351 0
-1332 -1352 0
-1332 -1353 0
-1332 -1354 0
-1332 -1355 0
-1333 -1334 0
-1333 -1335 0
-1333 -1336 0
-1333 -1337 0
-1333 -1338 0
-1333 -1339 0
-1333 -1340 0
-1333 -1341 0
-1333 -1342 0
-1333 -1343 0
-1333 -1344 0
-1333 -1345 0
-1333 -1346 0
-1333 -1347 0
-1333 -1348 0
-1333 -1349 0
-1333 -1350 0
-1333 -1351 0
-1333 -1352 0
-1333 -1353 0
-1333 -1354 0
-1333 -1355 0
-1334 -1335 0
-1334 -1336 0
-1334 -1337 0
-1334 -1338 0
-1334 -1339 0
-1334 -1340 0
-1334 -1341 0
-1334 -1342 0
-1334 -1343 0
-1334 -1344 0
-1334 -1345 0
-1334 -1346 0
-1334 -1347 0
-1334 -1348 0
-1334 -1349 0
-1334 -1350 0
-1334 -1351 0
-1334 -1352 0
-1334 -1353 0
-1334 -1354 0
-1334 -1355 0
-1335 -1336 0
-1335 -1337 0
-1335 -1338 0
-1335 -1339 0
-1335 -1340 0
-1335 -1341 0
-1335 -1342 0
-1335 -1343 0
-1335 -1344 0
-1335 -1345 0
-1335 -1346 0
-1335 -1347 0
-1335 -1348 0
-1335 -1349 0
-1335 -1350 0
-1335 -1351 0
-1335 -1352 0
-1335 -1353 0
-1335 -1354 0
-1335 -1355 0
-1336 -1337 0
-1336 -1338 0
-1336 -1339 0
-1336 -1340 0
-1336 -1341 0
-1336 -1342 0
-1336 -1343 0
-1336 -1344 0
-1336 -1345 0
-1336 -1346 0
-1336 -1347 0
-1336 -1348 0
-1336 -1349 0
-1336 -1350 0
-1336 -1351 0
-1336 -1352 0
-1336 -1353 0
-1336 -1354 0
-1336 -1355 0
-1337 -1338 0
-1337 -1339 0
-1337 -1340 0
-1337 -1341 0
-1337 -1342 0
-1337 -1343 0
-1337 -1344 0
-1337 -1345 0
-1337 -1346 0
-1337 -1347 0
-1337 -1348 0
-1337 -1349 0
-1337 -1350 0
-1337 -1351 0
-1337 -1352 0
-1337 -1353 0
-1337 -1354 0
-1337 -1355 0
-1338 -1339 0
-1338 -1340 0
-1338 -1341 0
-1338 -1342 0
-1338 -1343 0
-1338 -1344 0
-1338 -1345 0
-1338 -1346 0
-1338 -1347 0
-1338 -1348 0
-1338 -1349 0
-1338 -1350 0
-1338 -1351 0
-1338 -1352 0
-1338 -1353 0
-1338 -1354 0
-1338 -1355 0
-1339 -1340 0
-1339 -1341 0
-1339 -1342 0
-1339 -1343 0
-1339 -1344 0
-1339 -1345 0
-1339 -1346 0
-1339 -1347 0
-1339 -1348 0
-1339 -1349 0
-1339 -1350 0
-1339 -1351 0
-1339 -1352 0
-1339 -1353 0
-1339 -1354 0
-1339 -1355 0
-1340 -1341 0
-1340 -1342 0
-1340 -1343 0
-1340 -1344 0
-1340 -1345 0
-1340 -1346 0
-1340 -1347 0
-1340 -1348 0
-1340 -1349 0
-1340 -1350 0
-1340 -1351 0
-1340 -1352 0
-1340 -1353 0
-1340 -1354 0
-1340 -1355 0
-1341 -1342 0
-1341 -1343 0
-1341 -1344 0
-1341 -1345 0
-1341 -1346 0
-1341 -1347 0
-1341 -1348 0
-1341 -1349 0
-1341 -1350 0
-1341 -1351 0
-1341 -1352 0
-1341 -1353 0
-1341 -1354 0
-1341 -1355 0
-1342 -1343 0
-1342 -1344 0
-1342 -1345 0
-1342 -1346 0
-1342 -1347 0
-1342 -1348 0
-1342 -1349 0
-1342 -1350 0
-1342 -1351 0
-1342 -1352 0
-1342 -1353 0
-1342 -1354 0
-1342 -1355 0
-1343 -1344 0
-1343 -1345 0
-1343 -1346 0
-1343 -1347 0
-1343 -1348 0
-1343 -1349 0
-1343 -1350 0
-1343 -1351 0
-1343 -1352 0
-1343 -1353 0
-1343 -1354 0
-1343 -1355 0
-1344 -1345 0
-1344 -1346 0
-1344 -1347 0
-1344 -1348 0
-1344 -1349 0
-1344 -1350 0
-1344 -1351 0
-1344 -1352 0
-1344 -1353 0
-1344 -1354 0
-1344 -1355 0
-1345 -1346 0
-1345 -1347 0
-1345 -1348 0
-1345 -1349 0
-1345 -1350 0
-1345 -1351 0
-1345 -1352 0
-1345 -1353 0
-1345 -1354 0
-1345 -1355 0
-1346 -1347 0
-1346 -1348 0
-1346 -1349 0
-1346 -1350 0
-1346 -1351 0
-1346 -1352 0
-1346 -1353 0
-1346 -1354 0
-1346 -1355 0
-1347 -1348 0
-1347 -1349 0
-1347 -1350 0
-1347 -1351 0
-1347 -1352 0
-1347 -1353 0
-1347 -1354 0
-1347 -1355 0
-1348 -1349 0
-1348 -1350 0
-1348 -1351 0
-1348 -1352 0
-1348 -1353 0
-1348 -1354 0
-1348 -1355 0
-1349 -1350 0
-1349 -1351 0
-1349 -1352 0
-1349 -1353 0
-1349 -1354 0
-1349 -1355 0
-1350 -1351 0
-1350 -1352 0
-1350 -1353 0
-1350 -1354 0
-1350 -1355 0
-1351 -1352 0
-1351 -1353 0
-1351 -1354 0
-1351 -1355 0
-1352 -1353 0
-1352 -1354 0
-1352 -1355 0
-1353 -1354 0
-1353 -1355 0
-1354 -1355 0
-1259 24 1308 0
-1259 -24 1307 0
-1260 24 1309 0
-1260 -24 1308 0
-1261 24 1310 0
-1261 -24 1309 0
-1262 24 1311 0
-1262 -24 1310 0
-1263 24 1312 0
-1263 -24 1311 0
-1264 24 1313 0
-1264 -24 1312 0
-1265 24 1314 0
-1265 -24 1313 0
-1266 24 1315 0
-1266 -24 1314 0
-1267 24 1316 0
-1267 -24 1315 0
-1268 24 1317 0
-1268 -24 1316 0
-1269 24 1318 0
-1269 -24 1317 0
-1270 24 1319 0
-1270 -24 1318 0
-1271 24 1320 0
-1271 -24 1319 0
-1272 24 1321 0
-1272 -24 1320 0
-1273 24 1322 0
-1273 -24 1321 0
-1274 24 1323 0
-1274 -24 1322 0
-1275 24 1324 0
-1275 -24 1323 0
-1276 24 1325 0
-1276 -24 1324 0
-1277 24 1326 0
-1277 -24 1325 0
-1278 24 1327 0
-1278 -24 1326 0
-1279 24 1328 0
-1279 -24 1327 0
-1280 24 1329 0
-1280 -24 1328 0
-1281 24 1330 0
-1281 -24 1329 0
-1282 24 1331 0
-1282 -24 1330 0
-1283 24 1332 0
-1283 -24 1331 0
-1284 24 1333 0
-1284 -24 1332 0
-1285 24 1334 0
-1285 -24 1333 0
-1286 24 1335 0
-1286 -24 1334 0
-1287 24 1336 0
-1287 -24 1335 0
-1288 24 1337 0
-1288 -24 1336 0
-1289 24 1338 0
-1289 -24 1337 0
-1290 24 1339 0
-1290 -24 1338 0
-1291 24 1340 0
-1291 -24 1339 0
-1292 24 1341 0
-1292 -24 1340 0
-1293 24 1342 0
-1293 -24 1341 0
-1294 24 1343 0
-1294 -24 1342 0
-1295 24 1344 0
-1295 -24 1343 0
-1296 24 1345 0
-1296 -24 1344 0
-1297 24 1346 0
-1297 -24 1345 0
-1298 24 1347 0
-1298 -24 1346 0
-1299 24 1348 0
-1299 -24 1347 0
-1300 24 1349 0
-1300 -24 1348 0
-1301 24 1350 0
-1301 -24 1349 0
-1302 24 1351 0
-1302 -24 1350 0
-1303 24 1352 0
-1303 -24 1351 0
-1304 24 1353 0
-1304 -24 1352 0
-1305 24 1354 0
-1305 -24 1353 0
-1306 24 1355 0
-1306 -24 1354 0
1356 1357 1358 1359 1360 1361 1362 1363 1364 1365 1366 1367 1368 1369 1370 1371 1372 1373 1374 1375 1376 1377 1378 1379 1380 1381 1382 1383 1384 1385 1386 1387 1388 1389 1390 1391 1392 1393 1394 1395 1396 1397 1398 1399 1400 1401 1402 1403 1404 1405 0
-1356 -1357 0
-1356 -1358 0
-1356 -1359 0
-1356 -1360 0
-1356 -1361 0
-1356 -1362 0
-1356 -1363 0
-1356 -1364 0
-1356 -1365 0
-1356 -1366 0
-1356 -1367 0
-1356 -1368 0
-1356 -1369 0
-1356 -1370 0
-1356 -1371 0
-1356 -1372 0
-1356 -1373 0
-1356 -1374 0
-1356 -1375 0
-1356 -1376 0
-1356 -1377 0
-1356 -1378 0
-1356 -1379 0
-1356 -1380 0
-1356 -1381 0
-1356 -1382 0
-1356 -1383 0
-1356 -1384 0
-1356 -1385 0
-1356 -1386 0
-1356 -1387 0
-1356 -1388 0
-1356 -1389 0
-1356 -1390 0
-1356 -1391 0
-1356 -1392 0
-1356 -1393 0
-1356 -1394 0
-1356 -1395 0
-1356 -1396 0
-1356 -1397 0
-1356 -1398 0
-1356 -1399 0
-1356 -1400 0
-1356 -1401 0
-1356 -1402 0
-1356 -1403 0
-1356 -1404 0
-1356 -1405 0
-1357 -1358 0
-1357 -1359 0
-1357 -1360 0
-1357 -1361 0
-1357 -1362 0
-1357 -1363 0
-1357 -1364 0
-1357 -1365 0
-1357 -1366 0
-1357 -1367 0
-1357 -1368 0
-1357 -1369 0
-1357 -1370 0
-1357 -1371 0
-1357 -1372 0
-1357 -1373 0
-1357 -1374 0
-1357 -1375 0
-1357 -1376 0
-1357 -1377 0
-1357 -1378 0
-1357 -1379 0
-1357 -1380 0
-1357 -1381 0
-1357 -1382 0
-1357 -1383 0
-1357 -1384 0
-1357 -1385 0
-1357 -1386 0
-1357 -1387 0
-1357 -1388 0
-1357 -1389 0
-1357 -1390 0
-1357 -1391 0
-1357 -1392 0
-1357 -1393 0
-1357 -1394 0
-1357 -1395 0
-1357 -1396 0
-1357 -1397 0
-1357 -1398 0
-1357 -1399 0
-1357 -1400 0
-1357 -1401 0
-1357 -1402 0
-1357 -1403 0
-1357 -1404 0
-1357 -1405 0
-1358 -1359 0
-1358 -1360 0
-1358 -1361 0
-1358 -1362 0
-1358 -1363 0
-1358 -1364 0
-1358 -1365 0
-1358 -1366 0
-1358 -1367 0
-1358 -1368 0
-1358 -1369 0
-1358 -1370 0
-1358 -1371 0
-1358 -1372 0
-1358 -1373 0
-1358 -1374 0
-1358 -1375 0
-1358 -1376 0
-1358 -1377 0
-1358 -1378 0
-1358 -1379 0
-1358 -1380 0
-1358 -1381 0
-1358 -1382 0
-1358 -1383 0
-1358 -1384 0
-1358 -1385 0
-1358 -1386 0
-1358 -1387 0
-1358 -1388 0
-1358 -1389 0
-1358 -1390 0
-1358 -1391 0
-1358 -1392 0
-1358 -1393 0
-1358 -1394 0
-1358 -1395 0
-1358 -1396 0
-1358 -1397 0
-1358 -1398 0
-1358 -1399 0
-1358 -1400 0
-1358 -1401 0
-1358 -1402 0
-1358 -1403 0
-1358 -1404 0
-1358 -1405 0
-1359 -1360 0
-1359 -1361 0
-1359 -1362 0
-1359 -1363 0
-1359 -1364 0
-1359 -1365 0
-1359 -1366 0
-1359 -1367 0
-1359 -1368 0
-1359 -1369 0
-1359 -1370 0
-1359 -1371 0
-1359 -1372 0
-1359 -1373 0
-1359 -1374 0
-1359 -1375 0
-1359 -1376 0
-1359 -1377 0
-1359 -1378 0
-1359 -1379 0
-1359 -1380 0
-1359 -1381 0
-1359 -1382 0
-1359 -1383 0
-1359 -1384 0
-1359 -1385 0
-1359 -1386 0
-1359 -1387 0
-1359 -1388 0
-1359 -1389 0
-1359 -1390 0
-1359 -1391 0
-1359 -1392 0
-1359 -1393 0
-1359 -1394 0
-1359 -1395 0
-1359 -1396 0
-1359 -1397 0
-1359 -1398 0
-1359 -1399 0
-1359 -1400 0
-1359 -1401 0
-1359 -1402 0
-1359 -1403 0
-1359 -1404 0
-1359 -1405 0
-1360 -1361 0
-1360 -1362 0
-1360 -1363 0
-1360 -1364 0
-1360 -1365 0
-1360 -1366 0
-1360 -1367 0
-1360 -1368 0
-1360 -1369 0
-1360 -1370 0
-1360 -1371 0
-1360 -1372 0
-1360 -1373 0
-1360 -1374 0
-1360 -1375 0
-1360 -1376 0
-1360 -1377 0
-1360 -1378 0
-1360 -1379 0
-1360 -1380 0
-1360 -1381 0
-1360 -1382 0
-1360 -1383 0
-1360 -1384 0
-1360 -1385 0
-1360 -1386 0
-1360 -1387 0
-1360 -1388 0
-1360 -1389 0
-1360 -1390 0
-1360 -1391 0
-1360 -1392 0
-1360 -1393 0
-1360 -1394 0
-1360 -1395 0
-1360 -1396 0
-1360 -1397 0
-1360 -1398 0
-1360 -1399 0
-1360 -1400 0
-1360 -1401 0
-1360 -1402 0
-1360 -1403 0
-1360 -1404 0
-1360 -1405 0
-1361 -1362 0
-1361 -1363 0
-1361 -1364 0
-1361 -1365 0
-1361 -1366 0
-1361 -1367 0
-1361 -1368 0
-1361 -1369 0
-1361 -1370 0
-1361 -1371 0
-1361 -1372 0
-1361 -1373 0
-1361 -1374 0
-1361 -1375 0
-1361 -1376 0
-1361 -1377 0
-1361 -1378 0
-1361 -1379 0
-1361 -1380 0
-1361 -1381 0
-1361 -1382 0
-1361 -1383 0
-1361 -1384 0
-1361 -1385 0
-1361 -1386 0
-1361 -1387 0
-1361 -1388 0
-1361 -1389 0
-1361 -1390 0
-1361 -1391 0
-1361 -1392 0
-1361 -1393 0
-1361 -1394 0
-1361 -1395 0
-1361 -1396 0
-1361 -1397 0
-1361 -1398 0
-1361 -1399 0
-1361 -1400 0
-1361 -1401 0
-1361 -1402 0
-1361 -1403 0
-1361 -1404 0
-1361 -1405 0
-1362 -1363 0
-1362 -1364 0
-1362 -1365 0
-1362 -1366 0
-1362 -1367 0
-1362 -1368 0
-1362 -1369 0
-1362 -1370 0
-1362 -1371 0
-1362 -1372 0
-1362 -1373 0
-1362 -1374 0
-1362 -1375 0
-1362 -1376 0
-1362 -1377 0
-1362 -1378 0
-1362 -1379 0
-1362 -1380 0
-1362 -1381 0
-1362 -1382 0
-1362 -1383 0
-1362 -1384 0
-1362 -1385 0
-1362 -1386 0
-1362 -1387 0
-1362 -1388 0
-1362 -1389 0
-1362 -1390 0
-1362 -1391 0
-1362 -1392 0
-1362 -1393 0
-1362 -1394 0
-1362 -1395 0
-1362 -1396 0
-1362 -1397 0
-1362 -1398 0
-1362 -1399 0
-1362 -1400 0
-1362 -1401 0
-1362 -1402 0
-1362 -1403 0
-1362 -1404 0
-1362 -1405 0
-1363 -1364 0
-1363 -1365 0
-1363 -1366 0
-1363 -1367 0
-1363 -1368 0
-1363 -1369 0
-1363 -1370 0
-1363 -1371 0
-1363 -1372 0
-1363 -1373 0
-1363 -1374 0
-1363 -1375 0
-1363 -1376 0
-1363 -1377 0
-1363 -1378 0
-1363 -1379 0
-1363 -1380 0
-1363 -1381 0
-1363 -1382 0
-1363 -1383 0
-1363 -1384 0
-1363 -1385 0
-1363 -1386 0
-1363 -1387 0
-1363 -1388 0
-1363 -1389 0
-1363 -1390 0
-1363 -1391 0
-1363 -1392 0
-1363 -1393 0
-1363 -1394 0
-1363 -1395 0
-1363 -1396 0
-1363 -1397 0
-1363 -1398 0
-1363 -1399 0
-1363 -1400 0
-1363 -1401 0
-1363 -1402 0
-1363 -1403 0
-1363 -1404 0
-1363 -1405 0
-1364 -1365 0
-1364 -1366 0
-1364 -1367 0
-1364 -1368 0
-1364 -1369 0
-1364 -1370 0
-1364 -1371 0
-1364 -1372 0
-1364 -1373 0
-1364 -1374 0
-1364 -1375 0
-1364 -1376 0
-1364 -1377 0
-1364 -1378 0
-1364 -1379 0
-1364 -1380 0
-1364 -1381 0
-1364 -1382 0
-1364 -1383 0
-1364 -1384 0
-1364 -1385 0
-1364 -1386 0
-1364 -1387 0
-1364 -1388 0
-1364 -1389 0
-1364 -1390 0
-1364 -1391 0
-1364 -1392 0
-1364 -1393 0
-1364 -1394 0
-1364 -1395 0
-1364 -1396 0
-1364 -1397 0
-1364 -1398 0
-1364 -1399 0
-1364 -1400 0
-1364 -1401 0
-1364 -1402 0
-1364 -1403 0
-1364 -1404 0
-1364 -1405 0
-1365 -1366 0
-1365 -1367 0
-1365 -1368 0
-1365 -1369 0
-1365 -1370 0
-1365 -1371 0
-1365 -1372 0
-1365 -1373 0
-1365 -1374 0
-1365 -1375 0
-1365 -1376 0
-1365 -1377 0
-1365 -1378 0
-1365 -1379 0
-1365 -1380 0
-1365 -1381 0
-1365 -1382 0
-1365 -1383 0
-1365 -1384 0
-1365 -1385 0
-1365 -1386 0
-1365 -1387 0
-1365 -1388 0
-1365 -1389 0
-1365 -1390 0
-1365 -1391 0
-1365 -1392 0
-1365 -1393 0
-1365 -1394 0
-1365 -1395 0
-1365 -1396 0
-1365 -1397 0
-1365 -1398 0
-1365 -1399 0
-1365 -1400 0
-1365 -1401 0
-1365 -1402 0
-1365 -1403 0
-1365 -1404 0
-1365 -1405 0
-1366 -1367 0
-1366 -1368 0
-1366 -1369 0
-1366 -1370 0
-1366 -1371 0
-1366 -1372 0
-1366 -1373 0
-1366 -1374 0
-1366 -1375 0
-1366 -1376 0
-1366 -1377 0
-1366 -1378 0
-1366 -1379 0
-1366 -1380 0
-1366 -1381 0
-1366 -1382 0
-1366 -1383 0
-1366 -1384 0
-1366 -1385 0
-1366 -1386 0
-1366 -1387 0
-1366 -1388 0
-1366 -1389 0
-1366 -1390 0
-1366 -1391 0
-1366 -1392 0
-1366 -1393 0
-1366 -1394 0
-1366 -1395 0
-1366 -1396 0
-1366 -1397 0
-1366 -1398 0
-1366 -1399 0
-1366 -1400 0
-1366 -1401 0
-1366 -1402 0
-1366 -1403 0
-1366 -1404 0
-1366 -1405 0
-1367 -1368 0
-1367 -1369 0
-1367 -1370 0
-1367 -1371 0
-1367 -1372 0
-1367 -1373 0
-1367 -1374 0
-1367 -1375 0
-1367 -1376 0
-1367 -1377 0
-1367 -1378 0
-1367 -1379 0
-1367 -1380 0
-1367 -1381 0
-1367 -1382 0
-1367 -1383 0
-1367 -1384 0
-1367 -1385 0
-1367 -1386 0
-1367 -1387 0
-1367 -1388 0
-1367 -1389 0
-1367 -1390 0
-1367 -1391 0
-1367 -1392 0
-1367 -1393 0
-1367 -1394 0
-1367 -1395 0
-1367 -1396 0
-1367 -1397 0
-1367 -1398 0
-1367 -1399 0
-1367 -1400 0
-1367 -1401 0
-1367 -1402 0
-1367 -1403 0
-1367 -1404 0
-1367 -1405 0
-1368 -1369 0
-1368 -1370 0
-1368 -1371 0
-1368 -1372 0
-1368 -1373 0
-1368 -1374 0
-1368 -1375 0
-1368 -1376 0
-1368 -1377 0
-1368 -1378 0
-1368 -1379 0
-1368 -1380 0
-1368 -1381 0
-1368 -1382 0
-1368 -1383 0
-1368 -1384 0
-1368 -1385 0
-1368 -1386 0
-1368 -1387 0
-1368 -1388 0
-1368 -1389 0
-1368 -1390 0
-1368 -1391 0
-1368 -1392 0
-1368 -1393 0
-1368 -1394 0
-1368 -1395 0
-1368 -1396 0
-1368 -1397 0
-1368 -1398 0
-1368 -1399 0
-1368 -1400 0
-1368 -1401 0
-1368 -1402 0
-1368 -1403 0
-1368 -1404 0
-1368 -1405 0
-1369 -1370 0
-1369 -1371 0
-1369 -1372 0
-1369 -1373 0
-1369 -1374 0
-1369 -1375 0
-1369 -1376 0
-1369 -1377 0
-1369 -1378 0
-1369 -1379 0
-1369 -1380 0
-1369 -1381 0
-1369 -1382 0
-1369 -1383 0
-1369 -1384 0
-1369 -1385 0
-1369 -1386 0
-1369 -1387 0
-1369 -1388 0
-1369 -1389 0
-1369 -1390 0
-1369 -1391 0
-1369 -1392 0
-1369 -1393 0
-1369 -1394 0
-1369 -1395 0
-1369 -1396 0
-1369 -1397 0
-1369 -1398 0
-1369 -1399 0
-1369 -1400 0
-1369 -1401 0
-1369 -1402 0
-1369 -1403 0
-1369 -1404 0
-1369 -1405 0
-1370 -1371 0
-1370 -1372 0
-1370 -1373 0
-1370 -1374 0
-1370 -1375 0
-1370 -1376 0
-1370 -1377 0
-1370 -1378 0
-1370 -1379 0
-1370 -1380 0
-1370 -1381 0
-1370 -1382 0
-1370 -1383 0
-1370 -1384 0
-1370 -1385 0
-1370 -1386 0
-1370 -1387 0
-1370 -1388 0
-1370 -1389 0
-1370 -1390 0
-1370 -1391 0
-1370 -1392 0
-1370 -1393 0
-1370 -1394 0
-1370 -1395 0
-1370 -1396 0
-1370 -1397 0
-1370 -1398 0
-1370 -1399 0
-1370 -1400 0
-1370 -1401 0
-1370 -1402 0
-1370 -1403 0
-1370 -1404 0
-1370 -1405 0
-1371 -1372 0
-1371 -1373 0
-1371 -1374 0
-1371 -1375 0
-1371 -1376 0
-1371 -1377 0
-1371 -1378 0
-1371 -1379 0
-1371 -1380 0
-1371 -1381 0
-1371 -1382 0
-1371 -1383 0
-1371 -1384 0
-1371 -1385 0
-1371 -1386 0
-1371 -1387 0
-1371 -1388 0
-1371 -1389 0
-1371 -1390 0
-1371 -1391 0
-1371 -1392 0
-1371 -1393 0
-1371 -1394 0
-1371 -1395 0
-1371 -1396 0
-1371 -1397 0
-1371 -1398 0
-1371 -1399 0
-1371 -1400 0
-1371 -1401 0
-1371 -1402 0
-1371 -1403 0
-1371 -1404 0
-1371 -1405 0
-1372 -1373 0
-1372 -1374 0
-1372 -1375 0
-1372 -1376 0
-1372 -1377 0
-1372 -1378 0
-1372 -1379 0
-1372 -1380 0
-1372 -1381 0
-1372 -1382 0
-1372 -1383 0
-1372 -1384 0
-1372 -1385 0
-1372 -1386 0
-1372 -1387 0
-1372 -1388 0
-1372 -1389 0
-1372 -1390 0
-1372 -1391 0
-1372 -1392 0
-1372 -1393 0
-1372 -1394 0
-1372 -1395 0
-1372 -1396 0
-1372 -1397 0
-1372 -1398 0
-1372 -1399 0
-1372 -1400 0
-1372 -1401 0
-1372 -1402 0
-1372 -1403 0
-1372 -1404 0
-1372 -1405 0
-1373 -1374 0
-1373 -1375 0
-1373 -1376 0
-1373 -1377 0
-1373 -1378 0
-1373 -1379 0
-1373 -1380 0
-1373 -1381 0
-1373 -1382 0
-1373 -1383 0
-1373 -1384 0
-1373 -1385 0
-1373 -1386 0
-1373 -1387 0
-1373 -1388 0
-1373 -1389 0
-1373 -1390 0
-1373 -1391 0
-1373 -1392 0
-1373 -1393 0
-1373 -1394 0
-1373 -1395 0
-1373 -1396 0
-1373 -1397 0
-1373 -1398 0
-1373 -1399 0
-1373 -1400 0
-1373 -1401 0
-1373 -1402 0
-1373 -1403 0
-1373 -1404 0
-1373 -1405 0
-1374 -1375 0
-1374 -1376 0
-1374 -1377 0
-1374 -1378 0
-1374 -1379 0
-1374 -1380 0
-1374 -1381 0
-1374 -1382 0
-1374 -1383 0
-1374 -1384 0
-1374 -1385 0
-1374 -1386 0
-1374 -1387 0
-1374 -1388 0
-1374 -1389 0
-1374 -1390 0
-1374 -1391 0
-1374 -1392 0
-1374 -1393 0
-1374 -1394 0
-1374 -1395 0
-1374 -1396 0
-1374 -1397 0
-1374 -1398 0
-1374 -1399 0
-1374 -1400 0
-1374 -1401 0
-1374 -1402 0
-1374 -1403 0
-1374 -1404 0
-1374 -1405 0
-1375 -1376 0
-1375 -1377 0
-1375 -1378 0
-1375 -1379 0
-1375 -1380 0
-1375 -1381 0
-1375 -1382 0
-1375 -1383 0
-1375 -1384 0
-1375 -1385 0
-1375 -1386 0
-1375 -1387 0
-1375 -1388 0
-1375 -1389 0
-1375 -1390 0
-1375 -1391 0
-1375 -1392 0
-1375 -1393 0
-1375 -1394 0
-1375 -1395 0
-1375 -1396 0
-1375 -1397 0
-1375 -1398 0
-1375 -1399 0
-1375 -1400 0
-1375 -1401 0
-1375 -1402 0
-1375 -1403 0
-1375 -1404 0
-1375 -1405 0
-1376 -1377 0
-1376 -1378 0
-1376 -1379 0
-1376 -1380 0
-1376 -1381 0
-1376 -1382 0
-1376 -1383 0
-1376 -1384 0
-1376 -1385 0
-1376 -1386 0
-1376 -1387 0
-1376 -1388 0
-1376 -1389 0
-1376 -1390 0
-1376 -1391 0
-1376 -1392 0
-1376 -1393 0
-1376 -1394 0
-1376 -1395 0
-1376 -1396 0
-1376 -1397 0
-1376 -1398 0
-1376 -1399 0
-1376 -1400 0
-1376 -1401 0
-1376 -1402 0
-1376 -1403 0
-1376 -1404 0
-1376 -1405 0
-1377 -1378 0
-1377 -1379 0
-1377 -1380 0
-1377 -1381 0
-1377 -1382 0
-1377 -1383 0
-1377 -1384 0
-1377 -1385 0
-1377 -1386 0
-1377 -1387 0
-1377 -1388 0
-1377 -1389 0
-1377 -1390 0
-1377 -1391 0
-1377 -1392 0
-1377 -1393 0
-1377 -1394 0
-1377 -1395 0
-1377 -1396 0
-1377 -1397 0
-1377 -1398 0
-1377 -1399 0
-1377 -1400 0
-1377 -1401 0
-1377 -1402 0
-1377 -1403 0
-1377 -1404 0
-1377 -1405 0
-1378 -1379 0
-1378 -1380 0
-1378 -1381 0
-1378 -1382 0
-1378 -1383 0
-1378 -1384 0
-1378 -1385 0
-1378 -1386 0
-1378 -1387 0
-1378 -1388 0
-1378 -1389 0
-1378 -1390 0
-1378 -1391 0
-1378 -1392 0
-1378 -1393 0
-1378 -1394 0
-1378 -1395 0
-1378 -1396 0
-1378 -1397 0
-1378 -1398 0
-1378 -1399 0
-1378 -1400 0
-1378 -1401 0
-1378 -1402 0
-1378 -1403 0
-1378 -1404 0
-1378 -1405 0
-1379 -1380 0
-1379 -1381 0
-1379 -1382 0
-1379 -1383 0
-1379 -1384 0
-1379 -1385 0
-1379 -1386 0
-1379 -1387 0
-1379 -1388 0
-1379 -1389 0
-1379 -1390 0
-1379 -1391 0
-1379 -1392 0
-1379 -1393 0
-1379 -1394 0
-1379 -1395 0
-1379 -1396 0
-1379 -1397 0
-1379 -1398 0
-1379 -1399 0
-1379 -1400 0
-1379 -1401 0
-1379 -1402 0
-1379 -1403 0
-1379 -1404 0
-1379 -1405 0
-1380 -1381 0
-1380 -1382 0
-1380 -1383 0
-1380 -1384 0
-1380 -1385 0
-1380 -1386 0
-1380 -1387 0
-1380 -1388 0
-1380 -1389 0
-1380 -1390 0
-1380 -1391 0
-1380 -1392 0
-1380 -1393 0
-1380 -1394 0
-1380 -1395 0
-1380 -1396 0
-1380 -1397 0
-1380 -1398 0
-1380 -1399 0
-1380 -1400 0
-1380 -1401 0
-1380 -1402 0
-1380 -1403 0
-1380 -1404 0
-1380 -1405 0
-1381 -1382 0
-1381 -1383 0
-1381 -1384 0
-1381 -1385 0
-1381 -1386 0
-1381 -1387 0
-1381 -1388 0
-1381 -1389 0
-1381 -1390 0
-1381 -1391 0
-1381 -1392 0
-1381 -1393 0
-1381 -1394 0
-1381 -1395 0
-1381 -1396 0
-1381 -1397 0
-1381 -1398 0
-1381 -1399 0
-1381 -1400 0
-1381 -1401 0
-1381 -1402 0
-1381 -1403 0
-1381 -1404 0
-1381 -1405 0
-1382 -1383 0
-1382 -1384 0
-1382 -1385 0
-1382 -1386 0
-1382 -1387 0
-1382 -1388 0
-1382 -1389 0
-1382 -1390 0
-1382 -1391 0
-1382 -1392 0
-1382 -1393 0
-1382 -1394 0
-1382 -1395 0
-1382 -1396 0
-1382 -1397 0
-1382 -1398 0
-1382 -1399 0
-1382 -1400 0
-1382 -1401 0
-1382 -1402 0
-1382 -1403 0
-1382 -1404 0
-1382 -1405 0
-1383 -1384 0
-1383 -1385 0
-1383 -1386 0
-1383 -1387 0
-1383 -1388 0
-1383 -1389 0
-1383 -1390 0
-1383 -1391 0
-1383 -1392 0
-1383 -1393 0
-1383 -1394 0
-1383 -1395 0
-1383 -1396 0
-1383 -1397 0
-1383 -1398 0
-1383 -1399 0
-1383 -1400 0
-1383 -1401 0
-1383 -1402 0
-1383 -1403 0
-1383 -1404 0
-1383 -1405 0
-1384 -1385 0
-1384 -1386 0
-1384 -1387 0
-1384 -1388 0
-1384 -1389 0
-1384 -1390 0
-1384 -1391 0
-1384 -1392 0
-1384 -1393 0
-1384 -1394 0
-1384 -1395 0
-1384 -1396 0
-1384 -1397 0
-1384 -1398 0
-1384 -1399 0
-1384 -1400 0
-1384 -1401 0
-1384 -1402 0
-1384 -1403 0
-1384 -1404 0
-1384 -1405 0
-1385 -1386 0
-1385 -1387 0
-1385 -1388 0
-1385 -1389 0
-1385 -1390 0
-1385 -1391 0
-1385 -1392 0
-1385 -1393 0
-1385 -1394 0
-1385 -1395 0
-1385 -1396 0
-1385 -1397 0
-1385 -1398 0
-1385 -1399 0
-1385 -1400 0
-1385 -1401 0
-1385 -1402 0
-1385 -1403 0
-1385 -1404 0
-1385 -1405 0
-1386 -1387 0
-1386 -1388 0
-1386 -1389 0
-1386 -1390 0
-1386 -1391 0
-1386 -1392 0
-1386 -1393 0
-1386 -1394 0
-1386 -1395 0
-1386 -1396 0
-1386 -1397 0
-1386 -1398 0
-1386 -1399 0
-1386 -1400 0
-1386 -1401 0
-1386 -1402 0
-1386 -1403 0
-1386 -1404 0
-1386 -1405 0
-1387 -1388 0
-1387 -1389 0
-1387 -1390 0
-1387 -1391 0
-1387 -1392 0
-1387 -1393 0
-1387 -1394 0
-1387 -1395 0
-1387 -1396 0
-1387 -1397 0
-1387 -1398 0
-1387 -1399 0
-1387 -1400 0
-1387 -1401 0
-1387 -1402 0
-1387 -1403 0
-1387 -1404 0
-1387 -1405 0
-1388 -1389 0
-1388 -1390 0
-1388 -1391 0
-1388 -1392 0
-1388 -1393 0
-1388 -1394 0
-1388 -1395 0
-1388 -1396 0
-1388 -1397 0
-1388 -1398 0
-1388 -1399 0
-1388 -1400 0
-1388 -1401 0
-1388 -1402 0
-1388 -1403 0
-1388 -1404 0
-1388 -1405 0
-1389 -1390 0
-1389 -1391 0
-1389 -1392 0
-1389 -1393 0
-1389 -1394 0
-1389 -1395 0
-1389 -1396 0
-1389 -1397 0
-1389 -1398 0
-1389 -1399 0
-1389 -1400 0
-1389 -1401 0
-1389 -1402 0
-1389 -1403 0
-1389 -1404 0
-1389 -1405 0
-1390 -1391 0
-1390 -1392 0
-1390 -1393 0
-1390 -1394 0
-1390 -1395 0
-1390 -1396 0
-1390 -1397 0
-1390 -1398 0
-1390 -1399 0
-1390 -1400 0
-1390 -1401 0
-1390 -1402 0
-1390 -1403 0
-1390 -1404 0
-1390 -1405 0
-1391 -1392 0
-1391 -1393 0
-1391 -1394 0
-1391 -1395 0
-1391 -1396 0
-1391 -1397 0
-1391 -1398 0
-1391 -1399 0
-1391 -1400 0
-1391 -1401 0
-1391 -1402 0
-1391 -1403 0
-1391 -1404 0
-1391 -1405 0
-1392 -1393 0
-1392 -1394 0
-1392 -1395 0
-1392 -1396 0
-1392 -1397 0
-1392 -1398 0
-1392 -1399 0
-1392 -1400 0
-1392 -1401 0
-1392 -1402 0
-1392 -1403 0
-1392 -1404 0
-1392 -1405 0
-1393 -1394 0
-1393 -1395 0
-1393 -1396 0
-1393 -1397 0
-1393 -1398 0
-1393 -1399 0
-1393 -1400 0
-1393 -1401 0
-1393 -1402 0
-1393 -1403 0
-1393 -1404 0
-1393 -1405 0
-1394 -1395 0
-1394 -1396 0
-1394 -1397 0
-1394 -1398 0
-1394 -1399 0
-1394 -1400 0
-1394 -1401 0
-1394 -1402 0
-1394 -1403 0
-1394 -1404 0
-1394 -1405 0
-1395 -1396 0
-1395 -1397 0
-1395 -1398 0
-1395 -1399 0
-1395 -1400 0
-1395 -1401 0
-1395 -1402 0
-1395 -1403 0
-1395 -1404 0
-1395 -1405 0
-1396 -1397 0
-1396 -1398 0
-1396 -1399 0
-1396 -1400 0
-1396 -1401 0
-1396 -1402 0
-1396 -1403 0
-1396 -1404 0
-1396 -1405 0
-1397 -1398 0
-1397 -1399 0
-1397 -1400 0
-1397 -1401 0
-1397 -1402 0
-1397 -1403 0
-1397 -1404 0
-1397 -1405 0
-1398 -1399 0
-1398 -1400 0
-1398 -1401 0
-1398 -1402 0
-1398 -1403 0
-1398 -1404 0
-1398 -1405 0
-1399 -1400 0
-1399 -1401 0
-1399 -1402 0
-1399 -1403 0
-1399 -1404 0
-1399 -1405 0
-1400 -1401 0
-1400 -1402 0
-1400 -1403 0
-1400 -1404 0
-1400 -1405 0
-1401 -1402 0
-1401 -1403 0
-1401 -1404 0
-1401 -1405 0
-1402 -1403 0
-1402 -1404 0
-1402 -1405 0
-1403 -1404 0
-1403 -1405 0
-1404 -1405 0
-1307 27 1357 0
-1307 -27 1356 0
-1308 27 1358 0
-1308 -27 1357 0
-1309 27 1359 0
-1309 -27 1358 0
-1310 27 1360 0
-1310 -27 1359 0
-1311 27 1361 0
-1311 -27 1360 0
-1312 27 1362 0
-1312 -27 1361 0
-1313 27 1363 0
-1313 -27 1362 0
-1314 27 1364 0
-1314 -27 1363 0
-1315 27 1365 0
-1315 -27 1364 0
-1316 27 1366 0
-1316 -27 1365 0
-1317 27 1367 0
-1317 -27 1366 0
-1318 27 1368 0
-1318 -27 1367 0
-1319 27 1369 0
-1319 -27 1368 0
-1320 27 1370 0
-1320 -27 1369 0
-1321 27 1371 0
-1321 -27 1370 0
-1322 27 1372 0
-1322 -27 1371 0
-1323 27 1373 0
-1323 -27 1372 0
-1324 27 1374 0
-1324 -27 1373 0
-1325 27 1375 0
-1325 -27 1374 0
-1326 27 1376 0
-1326 -27 1375 0
-1327 27 1377 0
-1327 -27 1376 0
-1328 27 1378 0
-1328 -27 1377 0
-1329 27 1379 0
-1329 -27 1378 0
-1330 27 1380 0
-1330 -27 1379 0
-1331 27 1381 0
-1331 -27 1380 0
-1332 27 1382 0
-1332 -27 1381 0
-1333 27 1383 0
-1333 -27 1382 0
-1334 27 1384 0
-1334 -27 1383 0
-1335 27 1385 0
-1335 -27 1384 0
-1336 27 1386 0
-1336 -27 1385 0
-1337 27 1387 0
-1337 -27 1386 0
-1338 27 1388 0
-1338 -27 1387 0
-1339 27 1389 0
-1339 -27 1388 0
-1340 27 1390 0
-1340 -27 1389 0
-1341 27 1391 0
-1341 -27 1390 0
-1342 27 1392 0
-1342 -27 1391 0
-1343 27 1393 0
-1343 -27 1392 0
-1344 27 1394 0
-1344 -27 1393 0
-1345 27 1395 0
-1345 -27 1394 0
-1346 27 1396 0
-1346 -27 1395 0
-1347 27 1397 0
-1347 -27 1396 0
-1348 27 1398 0
-1348 -27 1397 0
-1349 27 1399 0
-1349 -27 1398 0
-1350 27 1400 0
-1350 -27 1399 0
-1351 27 1401 0
-1351 -27 1400 0
-1352 27 1402 0
-1352 -27 1401 0
-1353 27 1403 0
-1353 -27 1402 0
-1354 27 1404 0
-1354 -27 1403 0
-1355 27 1405 0
-1355 -27 1404 0
1406 1407 1408 1409 1410 1411 1412 1413 1414 1415 1416 1417 1418 1419 1420 1421 1422 1423 1424 1425 1426 1427 1428 1429 1430 1431 1432 1433 1434 1435 1436 1437 1438 1439 1440 1441 1442 1443 1444 1445 1446 1447 1448 1449 1450 1451 1452 1453 1454 1455 1456 0
-1406 -1407 0
-1406 -1408 0
-1406 -1409 0
-1406 -1410 0
-1406 -1411 0
-1406 -1412 0
-1406 -1413 0
-1406 -1414 0
-1406 -1415 0
-1406 -1416 0
-1406 -1417 0
-1406 -1418 0
-1406 -1419 0
-1406 -1420 0
-1406 -1421 0
-1406 -1422 0
-1406 -1423 0
-1406 -1424 0
-1406 -1425 0
-1406 -1426 0
-1406 -1427 0
-1406 -1428 0
-1406 -1429 0
-1406 -1430 0
-1406 -1431 0
-1406 -1432 0
-1406 -1433 0
-1406 -1434 0
-1406 -1435 0
-1406 -1436 0
-1406 -1437 0
-1406 -1438 0
-1406 -1439 0
-1406 -1440 0
-1406 -1441 0
-1406 -1442 0
-1406 -1443 0
-1406 -1444 0
-1406 -1445 0
-1406 -1446 0
-1406 -1447 0
-1406 -1448 0
-1406 -1449 0
-1406 -1450 0
-1406 -1451 0
-1406 -1452 0
-1406 -1453 0
-1406 -1454 0
-1406 -1455 0
-1406 -1456 0
-1407 -1408 0
-1407 -1409 0
-1407 -1410 0
-1407 -1411 0
-1407 -1412 0
-1407 -1413 0
-1407 -1414 0
-1407 -1415 0
-1407 -1416 0
-1407 -1417 0
-1407 -1418 0
-1407 -1419 0
-1407 -1420 0
-1407 -1421 0
-1407 -1422 0
-1407 -1423 0
-1407 -1424 0
-1407 -1425 0
-1407 -1426 0
-1407 -1427 0
-1407 -1428 0
-1407 -1429 0
-1407 -1430 0
-1407 -1431 0
-1407 -1432 0
-1407 -1433 0
-1407 -1434 0
-1407 -1435 0
-1407 -1436 0
-1407 -1437 0
-1407 -1438 0
-1407 -1439 0
-1407 -1440 0
-1407 -1441 0
-1407 -1442 0
-1407 -1443 0
-1407 -1444 0
-1407 -1445 0
-1407 -1446 0
-1407 -1447 0
-1407 -1448 0
-1407 -1449 0
-1407 -1450 0
-1407 -1451 0
-1407 -1452 0
-1407 -1453 0
-1407 -1454 0
-1407 -1455 0
-1407 -1456 0
-1408 -1409 0
-1408 -1410 0
-1408 -1411 0
-1408 -1412 0
-1408 -1413 0
-1408 -1414 0
-1408 -1415 0
-1408 -1416 0
-1408 -1417 0
-1408 -1418 0
-1408 -1419 0
-1408 -1420 0
-1408 -1421 0
-1408 -1422 0
-1408 -1423 0
-1408 -1424 0
-1408 -1425 0
-1408 -1426 0
-1408 -1427 0
-1408 -1428 0
-1408 -1429 0
-1408 -1430 0
-1408 -1431 0
-1408 -1432 0
-1408 -1433 0
-1408 -1434 0
-1408 -1435 0
-1408 -1436 0
-1408 -1437 0
-1408 -1438 0
-1408 -1439 0
-1408 -1440 0
-1408 -1441 0
-1408 -1442 0
-1408 -1443 0
-1408 -1444 0
-1408 -1445 0
-1408 -1446 0
-1408 -1447 0
-1408 -1448 0
-1408 -1449 0
-1408 -1450 0
-1408 -1451 0
-1408 -1452 0
-1408 -1453 0
-1408 -1454 0
-1408 -1455 0
-1408 -1456 0
-1409 -1410 0
-1409 -1411 0
-1409 -1412 0
-1409 -1413 0
-1409 -1414 0
-1409 -1415 0
-1409 -1416 0
-1409 -1417 0
-1409 -1418 0
-1409 -1419 0
-1409 -1420 0
-1409 -1421 0
-1409 -1422 0
-1409 -1423 0
-1409 -1424 0
-1409 -1425 0
-1409 -1426 0
-1409 -1427 0
-1409 -1428 0
-1409 -1429 0
-1409 -1430 0
-1409 -1431 0
-1409 -1432 0
-1409 -1433 0
-1409 -1434 0
-1409 -1435 0
-1409 -1436 0
-1409 -1437 0
-1409 -1438 0
-1409 -1439 0
-1409 -1440 0
-1409 -1441 0
-1409 -1442 0
-1409 -1443 0
-1409 -1444 0
-1409 -1445 0
-1409 -1446 0
-1409 -1447 0
-1409 -1448 0
-1409 -1449 0
-1409 -1450 0
-1409 -1451 0
-1409 -1452 0
-1409 -1453 0
-1409 -1454 0
-1409 -1455 0
-1409 -1456 0
-1410 -1411 0
-1410 -1412 0
-1410 -1413 0
-1410 -1414 0
-1410 -1415 0
-1410 -1416 0
-1410 -1417 0
-1410 -1418 0
-1410 -1419 0
-1410 -1420 0
-1410 -1421 0
-1410 -1422 0
-1410 -1423 0
-1410 -1424 0
-1410 -1425 0
-1410 -1426 0
-1410 -1427 0
-1410 -1428 0
-1410 -1429 0
-1410 -1430 0
-1410 -1431 0
-1410 -1432 0
-1410 -1433 0
-1410 -1434 0
-1410 -1435 0
-1410 -1436 0
-1410 -1437 0
-1410 -1438 0
-1410 -1439 0
-1410 -1440 0
-1410 -1441 0
-1410 -1442 0
-1410 -1443 0
-1410 -1444 0
-1410 -1445 0
-1410 -1446 0
-1410 -1447 0
-1410 -1448 0
-1410 -1449 0
-1410 -1450 0
-1410 -1451 0
-1410 -1452 0
-1410 -1453 0
-1410 -1454 0
-1410 -1455 0
-1410 -1456 0
-1411 -1412 0
-1411 -1413 0
-1411 -1414 0
-1411 -1415 0
-1411 -1416 0
-1411 -1417 0
-1411 -1418 0
-1411 -1419 0
-1411 -1420 0
-1411 -1421 0
-1411 -1422 0
-1411 -1423 0
-1411 -1424 0
-1411 -1425 0
-1411 -1426 0
-1411 -1427 0
-1411 -1428 0
-1411 -1429 0
-1411 -1430 0
-1411 -1431 0
-1411 -1432 0
-1411 -1433 0
-1411 -1434 0
-1411 -1435 0
-1411 -1436 0
-1411 -1437 0
-1411 -1438 0
-1411 -1439 0
-1411 -1440 0
-1411 -1441 0
-1411 -1442 0
-1411 -1443 0
-1411 -1444 0
-1411 -1445 0
-1411 -1446 0
-1411 -1447 0
-1411 -1448 0
-1411 -1449 0
-1411 -1450 0
-1411 -1451 0
-1411 -1452 0
-1411 -1453 0
-1411 -1454 0
-1411 -1455 0
-1411 -1456 0
-1412 -1413 0
-1412 -1414 0
-1412 -1415 0
-1412 -1416 0
-1412 -1417 0
-1412 -1418 0
-1412 -1419 0
-1412 -1420 0
-1412 -1421 0
-1412 -1422 0
-1412 -1423 0
-1412 -1424 0
-1412 -1425 0
-1412 -1426 0
-1412 -1427 0
-1412 -1428 0
-1412 -1429 0
-1412 -1430 0
-1412 -1431 0
-1412 -1432 0
-1412 -1433 0
-1412 -1434 0
-1412 -1435 0
-1412 -1436 0
-1412 -1437 0
-1412 -1438 0
-1412 -1439 0
-1412 -1440 0
-1412 -1441 0
-1412 -1442 0
-1412 -1443 0
-1412 -1444 0
-1412 -1445 0
-1412 -1446 0
-1412 -1447 0
-1412 -1448 0
-1412 -1449 0
-1412 -1450 0
-1412 -1451 0
-1412 -1452 0
-1412 -1453 0
-1412 -1454 0
-1412 -1455 0
-1412 -1456 0
-1413 -1414 0
-1413 -1415 0
-1413 -1416 0
-1413 -1417 0
-1413 -1418 0
-1413 -1419 0
-1413 -1420 0
-1413 -1421 0
-1413 -1422 0
-1413 -1423 0
-1413 -1424 0
-1413 -1425 0
-1413 -1426 0
-1413 -1427 0
-1413 -1428 0
-1413 -1429 0
-1413 -1430 0
-1413 -1431 0
-1413 -1432 0
-1413 -1433 0
-1413 -1434 0
-1413 -1435 0
-1413 -1436 0
-1413 -1437 0
-1413 -1438 0
-1413 -1439 0
-1413 -1440 0
-1413 -1441 0
-1413 -1442 0
-1413 -1443 0
-1413 -1444 0
-1413 -1445 0
-1413 -1446 0
-1413 -1447 0
-1413 -1448 0
-1413 -1449 0
-1413 -1450 0
-1413 -1451 0
-1413 -1452 0
-1413 -1453 0
-1413 -1454 0
-1413 -1455 0
-1413 -1456 0
-1414 -1415 0
-1414 -1416 0
-1414 -1417 0
-1414 -1418 0
-1414 -1419 0
-1414 -1420 0
-1414 -1421 0
-1414 -1422 0
-1414 -1423 0
-1414 -1424 0
-1414 -1425 0
-1414 -1426 0
-1414 -1427 0
-1414 -1428 0
-1414 -1429 0
-1414 -1430 0
-1414 -1431 0
-1414 -1432 0
-1414 -1433 0
-1414 -1434 0
-1414 -1435 0
-1414 -1436 0
-1414 -1437 0
-1414 -1438 0
-1414 -1439 0
-1414 -1440 0
-1414 -1441 0
-1414 -1442 0
-1414 -1443 0
-1414 -1444 0
-1414 -1445 0
-1414 -1446 0
-1414 -1447 0
-1414 -1448 0
-1414 -1449 0
-1414 -1450 0
-1414 -1451 0
-1414 -1452 0
-1414 -1453 0
-1414 -1454 0
-1414 -1455 0
-1414 -1456 0
-1415 -1416 0
-1415 -1417 0
-1415 -1418 0
-1415 -1419 0
-1415 -1420 0
-1415 -1421 0
-1415 -1422 0
-1415 -1423 0
-1415 -1424 0
-1415 -1425 0
-1415 -1426 0
-1415 -1427 0
-1415 -1428 0
-1415 -1429 0
-1415 -1430 0
-1415 -1431 0
-1415 -1432 0
-1415 -1433 0
-1415 -1434 0
-1415 -1435 0
-1415 -1436 0
-1415 -1437 0
-1415 -1438 0
-1415 -1439 0
-1415 -1440 0
-1415 -1441 0
-1415 -1442 0
-1415 -1443 0
-1415 -1444 0
-1415 -1445 0
-1415 -1446 0
-1415 -1447 0
-1415 -1448 0
-1415 -1449 0
-1415 -1450 0
-1415 -1451 0
-1415 -1452 0
-1415 -1453 0
-1415 -1454 0
-1415 -1455 0
-1415 -1456 0
-1416 -1417 0
-1416 -1418 0
-1416 -1419 0
-1416 -1420 0
-1416 -1421 0
-1416 -1422 0
-1416 -1423 0
-1416 -1424 0
-1416 -1425 0
-1416 -1426 0
-1416 -1427 0
-1416 -1428 0
-1416 -1429 0
-1416 -1430 0
-1416 -1431 0
-1416 -1432 0
-1416 -1433 0
-1416 -1434 0
-1416 -1435 0
-1416 -1436 0
-1416 -1437 0
-1416 -1438 0
-1416 -1439 0
-1416 -1440 0
-1416 -1441 0
-1416 -1442 0
-1416 -1443 0
-1416 -1444 0
-1416 -1445 0
-1416 -1446 0
-1416 -1447 0
-1416 -1448 0
-1416 -1449 0
-1416 -1450 0
-1416 -1451 0
-1416 -1452 0
-1416 -1453 0
-1416 -1454 0
-1416 -1455 0
-1416 -1456 0
-1417 -1418 0
-1417 -1419 0
-1417 -1420 0
-1417 -1421 0
-1417 -1422 0
-1417 -1423 0
-1417 -1424 0
-1417 -1425 0
-1417 -1426 0
-1417 -1427 0
-1417 -1428 0
-1417 -1429 0
-1417 -1430 0
-1417 -1431 0
-1417 -1432 0
-1417 -1433 0
-1417 -1434 0
-1417 -1435 0
-1417 -1436 0
-1417 -1437 0
-1417 -1438 0
-1417 -1439 0
-1417 -1440 0
-1417 -1441 0
-1417 -1442 0
-1417 -1443 0
-1417 -1444 0
-1417 -1445 0
-1417 -1446 0
-1417 -1447 0
-1417 -1448 0
-1417 -1449 0
-1417 -1450 0
-1417 -1451 0
-1417 -1452 0
-1417 -1453 0
-1417 -1454 0
-1417 -1455 0
-1417 -1456 0
-1418 -1419 0
-1418 -1420 0
-1418 -1421 0
-1418 -1422 0
-1418 -1423 0
-1418 -1424 0
-1418 -1425 0
-1418 -1426 0
-1418 -1427 0
-1418 -1428 0
-1418 -1429 0
-1418 -1430 0
-1418 -1431 0
-1418 -1432 0
-1418 -1433 0
-1418 -1434 0
-1418 -1435 0
-1418 -1436 0
-1418 -1437 0
-1418 -1438 0
-1418 -1439 0
-1418 -1440 0
-1418 -1441 0
-1418 -1442 0
-1418 -1443 0
-1418 -1444 0
-1418 -1445 0
-1418 -1446 0
-1418 -1447 0
-1418 -1448 0
-1418 -1449 0
-1418 -1450 0
-1418 -1451 0
-1418 -1452 0
-1418 -1453 0
-1418 -1454 0
-1418 -1455 0
-1418 -1456 0
-1419 -1420 0
-1419 -1421 0
-1419 -1422 0
-1419 -1423 0
-1419 -1424 0
-1419 -1425 0
-1419 -1426 0
-1419 -1427 0
-1419 -1428 0
-1419 -1429 0
-1419 -1430 0
-1419 -1431 0
-1419 -1432 0
-1419 -1433 0
-1419 -1434 0
-1419 -1435 0
-1419 -1436 0
-1419 -1437 0
-1419 -1438 0
-1419 -1439 0
-1419 -1440 0
-1419 -1441 0
-1419 -1442 0
-1419 -1443 0
-1419 -1444 0
-1419 -1445 0
-1419 -1446 0
-1419 -1447 0
-1419 -1448 0
-1419 -1449 0
-1419 -1450 0
-1419 -1451 0
-1419 -1452 0
-1419 -1453 0
-1419 -1454 0
-1419 -1455 0
-1419 -1456 0
-1420 -1421 0
-1420 -1422 0
-1420 -1423 0
-1420 -1424 0
-1420 -1425 0
-1420 -1426 0
-1420 -1427 0
-1420 -1428 0
-1420 -1429 0
-1420 -1430 0
-1420 -1431 0
-1420 -1432 0
-1420 -1433 0
-1420 -1434 0
-1420 -1435 0
-1420 -1436 0
-1420 -1437 0
-1420 -1438 0
-1420 -1439 0
-1420 -1440 0
-1420 -1441 0
-1420 -1442 0
-1420 -1443 0
-1420 -1444 0
-1420 -1445 0
-1420 -1446 0
-1420 -1447 0
-1420 -1448 0
-1420 -1449 0
-1420 -1450 0
-1420 -1451 0
-1420 -1452 0
-1420 -1453 0
-1420 -1454 0
-1420 -1455 0
-1420 -1456 0
-1421 -1422 0
-1421 -1423 0
-1421 -1424 0
-1421 -1425 0
-1421 -1426 0
-1421 -1427 0
-1421 -1428 0
-1421 -1429 0
-1421 -1430 0
-1421 -1431 0
-1421 -1432 0
-1421 -1433 0
-1421 -1434 0
-1421 -1435 0
-1421 -1436 0
-1421 -1437 0
-1421 -1438 0
-1421 -1439 0
-1421 -1440 0
-1421 -1441 0
-1421 -1442 0
-1421 -1443 0
-1421 -1444 0
-1421 -1445 0
-1421 -1446 0
-1421 -1447 0
-1421 -1448 0
-1421 -1449 0
-1421 -1450 0
-1421 -1451 0
-1421 -1452 0
-1421 -1453 0
-1421 -1454 0
-1421 -1455 0
-1421 -1456 0
-1422 -1423 0
-1422 -1424 0
-1422 -1425 0
-1422 -1426 0
-1422 -1427 0
-1422 -1428 0
-1422 -1429 0
-1422 -1430 0
-1422 -1431 0
-1422 -1432 0
-1422 -1433 0
-1422 -1434 0
-1422 -1435 0
-1422 -1436 0
-1422 -1437 0
-1422 -1438 0
-1422 -1439 0
-1422 -1440 0
-1422 -1441 0
-1422 -1442 0
-1422 -1443 0
-1422 -1444 0
-1422 -1445 0
-1422 -1446 0
-1422 -1447 0
-1422 -1448 0
-1422 -1449 0
-1422 -1450 0
-1422 -1451 0
-1422 -1452 0
-1422 -1453 0
-1422 -1454 0
-1422 -1455 0
-1422 -1456 0
-1423 -1424 0
-1423 -1425 0
-1423 -1426 0
-1423 -1427 0
-1423 -1428 0
-1423 -1429 0
-1423 -1430 0
-1423 -1431 0
-1423 -1432 0
-1423 -1433 0
-1423 -1434 0
-1423 -1435 0
-1423 -1436 0
-1423 -1437 0
-1423 -1438 0
-1423 -1439 0
-1423 -1440 0
-1423 -1441 0
-1423 -1442 0
-1423 -1443 0
-1423 -1444 0
-1423 -1445 0
-1423 -1446 0
-1423 -1447 0
-1423 -1448 0
-1423 -1449 0
-1423 -1450 0
-1423 -1451 0
-1423 -1452 0
-1423 -1453 0
-1423 -1454 0
-1423 -1455 0
-1423 -1456 0
-1424 -1425 0
-1424 -1426 0
-1424 -1427 0
-1424 -1428 0
-1424 -1429 0
-1424 -1430 0
-1424 -1431 0
-1424 -1432 0
-1424 -1433 0
-1424 -1434 0
-1424 -1435 0
-1424 -1436 0
-1424 -1437 0
-1424 -1438 0
-1424 -1439 0
-1424 -1440 0
-1424 -1441 0
-1424 -1442 0
-1424 -1443 0
-1424 -1444 0
-1424 -1445 0
-1424 -1446 0
-1424 -1447 0
-1424 -1448 0
-1424 -1449 0
-1424 -1450 0
-1424 -1451 0
-1424 -1452 0
-1424 -1453 0
-1424 -1454 0
-1424 -1455 0
-1424 -1456 0
-1425 -1426 0
-1425 -1427 0
-1425 -1428 0
-1425 -1429 0
-1425 -1430 0
-1425 -1431 0
-1425 -1432 0
-1425 -1433 0
-1425 -1434 0
-1425 -1435 0
-1425 -1436 0
-1425 -1437 0
-1425 -1438 0
-1425 -1439 0
-1425 -1440 0
-1425 -1441 0
-1425 -1442 0
-1425 -1443 0
-1425 -1444 0
-1425 -1445 0
-1425 -1446 0
-1425 -1447 0
-1425 -1448 0
-1425 -1449 0
-1425 -1450 0
-1425 -1451 0
-1425 -1452 0
-1425 -1453 0
-1425 -1454 0
-1425 -1455 0
-1425 -1456 0
-1426 -1427 0
-1426 -1428 0
-1426 -1429 0
-1426 -1430 0
-1426 -1431 0
-1426 -1432 0
-1426 -1433 0
-1426 -1434 0
-1426 -1435 0
-1426 -1436 0
-1426 -1437 0
-1426 -1438 0
-1426 -1439 0
-1426 -1440 0
-1426 -1441 0
-1426 -1442 0
-1426 -1443 0
-1426 -1444 0
-1426 -1445 0
-1426 -1446 0
-1426 -1447 0
-1426 -1448 0
-1426 -1449 0
-1426 -1450 0
-1426 -1451 0
-1426 -1452 0
-1426 -1453 0
-1426 -1454 0
-1426 -1455 0
-1426 -1456 0
-1427 -1428 0
-1427 -1429 0
-1427 -1430 0
-1427 -1431 0
-1427 -1432 0
-1427 -1433 0
-1427 -1434 0
-1427 -1435 0
-1427 -1436 0
-1427 -1437 0
-1427 -1438 0
-1427 -1439 0
-1427 -1440 0
-1427 -1441 0
-1427 -1442 0
-1427 -1443 0
-1427 -1444 0
-1427 -1445 0
-1427 -1446 0
-1427 -1447 0
-1427 -1448 0
-1427 -1449 0
-1427 -1450 0
-1427 -1451 0
-1427 -1452 0
-1427 -1453 0
-1427 -1454 0
-1427 -1455 0
-1427 -1456 0
-1428 -1429 0
-1428 -1430 0
-1428 -1431 0
-1428 -1432 0
-1428 -1433 0
-1428 -1434 0
-1428 -1435 0
-1428 -1436 0
-1428 -1437 0
-1428 -1438 0
-1428 -1439 0
-1428 -1440 0
-1428 -1441 0
-1428 -1442 0
-1428 -1443 0
-1428 -1444 0
-1428 -1445 0
-1428 -1446 0
-1428 -1447 0
-1428 -1448 0
-1428 -1449 0
-1428 -1450 0
-1428 -1451 0
-1428 -1452 0
-1428 -1453 0
-1428 -1454 0
-1428 -1455 0
-1428 -1456 0
-1429 -1430 0
-1429 -1431 0
-1429 -1432 0
-1429 -1433 0
-1429 -1434 0
-1429 -1435 0
-1429 -1436 0
-1429 -1437 0
-1429 -1438 0
-1429 -1439 0
-1429 -1440 0
-1429 -1441 0
-1429 -1442 0
-1429 -1443 0
-1429 -1444 0
-1429 -1445 0
-1429 -1446 0
-1429 -1447 0
-1429 -1448 0
-1429 -1449 0
-1429 -1450 0
-1429 -1451 0
-1429 -1452 0
-1429 -1453 0
-1429 -1454 0
-1429 -1455 0
-1429 -1456 0
-1430 -1431 0
-1430 -1432 0
-1430 -1433 0
-1430 -1434 0
-1430 -1435 0
-1430 -1436 0
-1430 -1437 0
-1430 -1438 0
-1430 -1439 0
-1430 -1440 0
-1430 -1441 0
-1430 -1442 0
-1430 -1443 0
-1430 -1444 0
-1430 -1445 0
-1430 -1446 0
-1430 -1447 0
-1430 -1448 0
-1430 -1449 0
-1430 -1450 0
-1430 -1451 0
-1430 -1452 0
-1430 -1453 0
-1430 -1454 0
-1430 -1455 0
-1430 -1456 0
-1431 -1432 0
-1431 -1433 0
-1431 -1434 0
-1431 -1435 0
-1431 -1436 0
-1431 -1437 0
-1431 -1438 0
-1431 -1439 0
-1431 -1440 0
-1431 -1441 0
-1431 -1442 0
-1431 -1443 0
-1431 -1444 0
-1431 -1445 0
-1431 -1446 0
-1431 -1447 0
-1431 -1448 0
-1431 -1449 0
-1431 -1450 0
-1431 -1451 0
-1431 -1452 0
-1431 -1453 0
-1431 -1454 0
-1431 -1455 0
-1431 -1456 0
-1432 -1433 0
-1432 -1434 0
-1432 -1435 0
-1432 -1436 0
-1432 -1437 0
-1432 -1438 0
-1432 -1439 0
-1432 -1440 0
-1432 -1441 0
-1432 -1442 0
-1432 -1443 0
-1432 -1444 0
-1432 -1445 0
-1432 -1446 0
-1432 -1447 0
-1432 -1448 0
-1432 -1449 0
-1432 -1450 0
-1432 -1451 0
-1432 -1452 0
-1432 -1453 0
-1432 -1454 0
-1432 -1455 0
-1432 -1456 0
-1433 -1434 0
-1433 -1435 0
-1433 -1436 0
-1433 -1437 0
-1433 -1438 0
-1433 -1439 0
-1433 -1440 0
-1433 -1441 0
-1433 -1442 0
-1433 -1443 0
-1433 -1444 0
-1433 -1445 0
-1433 -1446 0
-1433 -1447 0
-1433 -1448 0
-1433 -1449 0
-1433 -1450 0
-1433 -1451 0
-1433 -1452 0
-1433 -1453 0
-1433 -1454 0
-1433 -1455 0
-1433 -1456 0
-1434 -1435 0
-1434 -1436 0
-1434 -1437 0
-1434 -1438 0
-1434 -1439 0
-1434 -1440 0
-1434 -1441 0
-1434 -1442 0
-1434 -1443 0
-1434 -1444 0
-1434 -1445 0
-1434 -1446 0
-1434 -1447 0
-1434 -1448 0
-1434 -1449 0
-1434 -1450 0
-1434 -1451 0
-1434 -1452 0
-1434 -1453 0
-1434 -1454 0
-1434 -1455 0
-1434 -1456 0
-1435 -1436 0
-1435 -1437 0
-1435 -1438 0
-1435 -1439 0
-1435 -1440 0
-1435 -1441 0
-1435 -1442 0
-1435 -1443 0
-1435 -1444 0
-1435 -1445 0
-1435 -1446 0
-1435 -1447 0
-1435 -1448 0
-1435 -1449 0
-1435 -1450 0
-1435 -1451 0
-1435 -1452 0
-1435 -1453 0
-1435 -1454 0
-1435 -1455 0
-1435 -1456 0
-1436 -1437 0
-1436 -1438 0
-1436 -1439 0
-1436 -1440 0
-1436 -1441 0
-1436 -1442 0
-1436 -1443 0
-1436 -1444 0
-1436 -1445 0
-1436 -1446 0
-1436 -1447 0
-1436 -1448 0
-1436 -1449 0
-1436 -1450 0
-1436 -1451 0
-1436 -1452 0
-1436 -1453 0
-1436 -1454 0
-1436 -1455 0
-1436 -1456 0
-1437 -1438 0
-1437 -1439 0
-1437 -1440 0
-1437 -1441 0
-1437 -1442 0
-1437 -1443 0
-1437 -1444 0
-1437 -1445 0
-1437 -1446 0
-1437 -1447 0
-1437 -1448 0
-1437 -1449 0
-1437 -1450 0
-1437 -1451 0
-1437 -1452 0
-1437 -1453 0
-1437 -1454 0
-1437 -1455 0
-1437 -1456 0
-1438 -1439 0
-1438 -1440 0
-1438 -1441 0
-1438 -1442 0
-1438 -1443 0
-1438 -1444 0
-1438 -1445 0
-1438 -1446 0
-1438 -1447 0
-1438 -1448 0
-1438 -1449 0
-1438 -1450 0
-1438 -1451 0
-1438 -1452 0
-1438 -1453 0
-1438 -1454 0
-1438 -1455 0
-1438 -1456 0
-1439 -1440 0
-1439 -1441 0
-1439 -1442 0
-1439 -1443 0
-1439 -1444 0
-1439 -1445 0
-1439 -1446 0
-1439 -1447 0
-1439 -1448 0
-1439 -1449 0
-1439 -1450 0
-1439 -1451 0
-1439 -1452 0
-1439 -1453 0
-1439 -1454 0
-1439 -1455 0
-1439 -1456 0
-1440 -1441 0
-1440 -1442 0
-1440 -1443 0
-1440 -1444 0
-1440 -1445 0
-1440 -1446 0
-1440 -1447 0
-1440 -1448 0
-1440 -1449 0
-1440 -1450 0
-1440 -1451 0
-1440 -1452 0
-1440 -1453 0
-1440 -1454 0
-1440 -1455 0
-1440 -1456 0
-1441 -1442 0
-1441 -1443 0
-1441 -1444 0
-1441 -1445 0
-1441 -1446 0
-1441 -1447 0
-1441 -1448 0
-1441 -1449 0
-1441 -1450 0
-1441 -1451 0
-1441 -1452 0
-1441 -1453 0
-1441 -1454 0
-1441 -1455 0
-1441 -1456 0
-1442 -1443 0
-1442 -1444 0
-1442 -1445 0
-1442 -1446 0
-1442 -1447 0
-1442 -1448 0
-1442 -1449 0
-1442 -1450 0
-1442 -1451 0
-1442 -1452 0
-1442 -1453 0
-1442 -1454 0
-1442 -1455 0
-1442 -1456 0
-1443 -1444 0
-1443 -1445 0
-1443 -1446 0
-1443 -1447 0
-1443 -1448 0
-1443 -1449 0
-1443 -1450 0
-1443 -1451 0
-1443 -1452 0
-1443 -1453 0
-1443 -1454 0
-1443 -1455 0
-1443 -1456 0
-1444 -1445 0
-1444 -1446 0
-1444 -1447 0
-1444 -1448 0
-1444 -1449 0
-1444 -1450 0
-1444 -1451 0
-1444 -1452 0
-1444 -1453 0
-1444 -1454 0
-1444 -1455 0
-1444 -1456 0
-1445 -1446 0
-1445 -1447 0
-1445 -1448 0
-1445 -1449 0
-1445 -1450 0
-1445 -1451 0
-1445 -1452 0
-1445 -1453 0
-1445 -1454 0
-1445 -1455 0
-1445 -1456 0
-1446 -1447 0
-1446 -1448 0
-1446 -1449 0
-1446 -1450 0
-1446 -1451 0
-1446 -1452 0
-1446 -1453 0
-1446 -1454 0
-1446 -1455 0
-1446 -1456 0
-1447 -1448 0
-1447 -1449 0
-1447 -1450 0
-1447 -1451 0
-1447 -1452 0
-1447 -1453 0
-1447 -1454 0
-1447 -1455 0
-1447 -1456 0
-1448 -1449 0
-1448 -1450 0
-1448 -1451 0
-1448 -1452 0
-1448 -1453 0
-1448 -1454 0
-1448 -1455 0
-1448 -1456 0
-1449 -1450 0
-1449 -1451 0
-1449 -1452 0
-1449 -1453 0
-1449 -1454 0
-1449 -1455 0
-1449 -1456 0
-1450 -1451 0
-1450 -1452 0
-1450 -1453 0
-1450 -1454 0
-1450 -1455 0
-1450 -1456 0
-1451 -1452 0
-1451 -1453 0
-1451 -1454 0
-1451 -1455 0
-1451 -1456 0
-1452 -1453 0
-1452 -1454 0
-1452 -1455 0
-1452 -1456 0
-1453 -1454 0
-1453 -1455 0
-1453 -1456 0
-1454 -1455 0
-1454 -1456 0
-1455 -1456 0
-1356 30 1407 0
-1356 -30 1406 0
-1357 30 1408 0
-1357 -30 1407 0
-1358 30 1409 0
-1358 -30 1408 0
-1359 30 1410 0
-1359 -30 1409 0
-1360 30 1411 0
-1360 -30 1410 0
-1361 30 1412 0
-1361 -30 1411 0
-1362 30 1413 0
-1362 -30 1412 0
-1363 30 1414 0
-1363 -30 1413 0
-1364 30 1415 0
-1364 -30 1414 0
-1365 30 1416 0
-1365 -30 1415 0
-1366 30 1417 0
-1366 -30 1416 0
-1367 30 1418 0
-1367 -30 1417 0
-1368 30 1419 0
-1368 -30 1418 0
-1369 30 1420 0
-1369 -30 1419 0
-1370 30 1421 0
-1370 -30 1420 0
-1371 30 1422 0
-1371 -30 1421 0
-1372 30 1423 0
-1372 -30 1422 0
-1373 30 1424 0
-1373 -30 1423 0
-1374 30 1425 0
-1374 -30 1424 0
-1375 30 1426 0
-1375 -30 1425 0
-1376 30 1427 0
-1376 -30 1426 0
-1377 30 1428 0
-1377 -30 1427 0
-1378 30 1429 0
-1378 -30 1428 0
-1379 30 1430 0
-1379 -30 1429 0
-1380 30 1431 0
-1380 -30 1430 0
-1381 30 1432 0
-1381 -30 1431 0
-1382 30 1433 0
-1382 -30 1432 0
-1383 30 1434 0
-1383 -30 1433 0
-1384 30 1435 0
-1384 -30 1434 0
-1385 30 1436 0
-1385 -30 1435 0
-1386 30 1437 0
-1386 -30 1436 0
-1387 30 1438 0
-1387 -30 1437 0
-1388 30 1439 0
-1388 -30 1438 0
-1389 30 1440 0
-1389 -30 1439 0
-1390 30 1441 0
-1390 -30 1440 0
-1391 30 1442 0
-1391 -30 1441 0
-1392 30 1443 0
-1392 -30 1442 0
-1393 30 1444 0
-1393 -30 1443 0
-1394 30 1445 0
-1394 -30 1444 0
-1395 30 1446 0
-1395 -30 1445 0
-1396 30 1447 0
-1396 -30 1446 0
-1397 30 1448 0
-1397 -30 1447 0
-1398 30 1449 0
-1398 -30 1448 0
-1399 30 1450 0
-1399 -30 1449 0
-1400 30 1451 0
-1400 -30 1450 0
-1401 30 1452 0
-1401 -30 1451 0
-1402 30 1453 0
-1402 -30 1452 0
-1403 30 1454 0
-1403 -30 1453 0
-1404 30 1455 0
-1404 -30 1454 0
-1405 30 1456 0
-1405 -30 1455 0
1457 1458 1459 1460 1461 1462 1463 1464 1465 1466 1467 1468 1469 1470 1471 1472 1473 1474 1475 1476 1477 1478 1479 1480 1481 1482 1483 1484 1485 1486 1487 1488 1489 1490 1491 1492 1493 1494 1495 1496 1497 1498 1499 1500 1501 1502 1503 1504 1505 1506 1507 1508 0
-1457 -1458 0
-1457 -1459 0
-1457 -1460 0
-1457 -1461 0
-1457 -1462 0
-1457 -1463 0
-1457 -1464 0
-1457 -1465 0
-1457 -1466 0
-1457 -1467 0
-1457 -1468 0
-1457 -1469 0
-1457 -1470 0
-1457 -1471 0
-1457 -1472 0
-1457 -1473 0
-1457 -1474 0
-1457 -1475 0
-1457 -1476 0
-1457 -1477 0
-1457 -1478 0
-1457 -1479 0
-1457 -1480 0
-1457 -1481 0
-1457 -1482 0
-1457 -1483 0
-1457 -1484 0
-1457 -1485 0
-1457 -1486 0
-1457 -1487 0
-1457 -1488 0
-1457 -1489 0
-1457 -1490 0
-1457 -1491 0
-1457 -1492 0
-1457 -1493 0
-1457 -1494 0
-1457 -1495 0
-1457 -1496 0
-1457 -1497 0
-1457 -1498 0
-1457 -1499 0
-1457 -1500 0
-1457 -1501 0
-1457 -1502 0
-1457 -1503 0
-1457 -1504 0
-1457 -1505 0
-1457 -1506 0
-1457 -1507 0
-1457 -1508 0
-1458 -1459 0
-1458 -1460 0
-1458 -1461 0
-1458 -1462 0
-1458 -1463 0
-1458 -1464 0
-1458 -1465 0
-1458 -1466 0
-1458 -1467 0
-1458 -1468 0
-1458 -1469 0
-1458 -1470 0
-1458 -1471 0
-1458 -1472 0
-1458 -1473 0
-1458 -1474 0
-1458 -1475 0
-1458 -1476 0
-1458 -1477 0
-1458 -1478 0
-1458 -1479 0
-1458 -1480 0
-1458 -1481 0
-1458 -1482 0
-1458 -1483 0
-1458 -1484 0
-1458 -1485 0
-1458 -1486 0
-1458 -1487 0
-1458 -1488 0
-1458 -1489 0
-1458 -1490 0
-1458 -1491 0
-1458 -1492 0
-1458 -1493 0
-1458 -1494 0
-1458 -1495 0
-1458 -1496 0
-1458 -1497 0
-1458 -1498 0
-1458 -1499 0
-1458 -1500 0
-1458 -1501 0
-1458 -1502 0
-1458 -1503 0
-1458 -1504 0
-1458 -1505 0
-1458 -1506 0
-1458 -1507 0
-1458 -1508 0
-1459 -1460 0
-1459 -1461 0
-1459 -1462 0
-1459 -1463 0
-1459 -1464 0
-1459 -1465 0
-1459 -1466 0
-1459 -1467 0
-1459 -1468 0
-1459 -1469 0
-1459 -1470 0
-1459 -1471 0
-1459 -1472 0
-1459 -1473 0
-1459 -1474 0
-1459 -1475 0
-1459 -1476 0
-1459 -1477 0
-1459 -1478 0
-1459 -1479 0
-1459 -1480 0
-1459 -1481 0
-1459 -1482 0
-1459 -1483 0
-1459 -1484 0
-1459 -1485 0
-1459 -1486 0
-1459 -1487 0
-1459 -1488 0
-1459 -1489 0
-1459 -1490 0
-1459 -1491 0
-1459 -1492 0
-1459 -1493 0
-1459 -1494 0
-1459 -1495 0
-1459 -1496 0
-1459 -1497 0
-1459 -1498 0
-1459 -1499 0
-1459 -1500 0
-1459 -1501 0
-1459 -1502 0
-1459 -1503 0
-1459 -1504 0
-1459 -1505 0
-1459 -1506 0
-1459 -1507 0
-1459 -1508 0
-1460 -1461 0
-1460 -1462 0
-1460 -1463 0
-1460 -1464 0
-1460 -1465 0
-1460 -1466 0
-1460 -1467 0
-1460 -1468 0
-1460 -1469 0
-1460 -1470 0
-1460 -1471 0
-1460 -1472 0
-1460 -1473 0
-1460 -1474 0
-1460 -1475 0
-1460 -1476 0
-1460 -1477 0
-1460 -1478 0
-1460 -1479 0
-1460 -1480 0
-1460 -1481 0
-1460 -1482 0
-1460 -1483 0
-1460 -1484 0
-1460 -1485 0
-1460 -1486 0
-1460 -1487 0
-1460 -1488 0
-1460 -1489 0
-1460 -1490 0
-1460 -1491 0
-1460 -1492 0
-1460 -1493 0
-1460 -1494 0
-1460 -1495 0
-1460 -1496 0
-1460 -1497 0
-1460 -1498 0
-1460 -1499 0
-1460 -1500 0
-1460 -1501 0
-1460 -1502 0
-1460 -1503 0
-1460 -1504 0
-1460 -1505 0
-1460 -1506 0
-1460 -1507 0
-1460 -1508 0
-1461 -1462 0
-1461 -1463 0
-1461 -1464 0
-1461 -1465 0
-1461 -1466 0
-1461 -1467 0
-1461 -1468 0
-1461 -1469 0
-1461 -1470 0
-1461 -1471 0
-1461 -1472 0
-1461 -1473 0
-1461 -1474 0
-1461 -1475 0
-1461 -1476 0
-1461 -1477 0
-1461 -1478 0
-1461 -1479 0
-1461 -1480 0
-1461 -1481 0
-1461 -1482 0
-1461 -1483 0
-1461 -1484 0
-1461 -1485 0
-1461 -1486 0
-1461 -1487 0
-1461 -1488 0
-1461 -1489 0
-1461 -1490 0
-1461 -1491 0
-1461 -1492 0
-1461 -1493 0
-1461 -1494 0
-1461 -1495 0
-1461 -1496 0
-1461 -1497 0
-1461 -1498 0
-1461 -1499 0
-1461 -1500 0
-1461 -1501 0
-1461 -1502 0
-1461 -1503 0
-1461 -1504 0
-1461 -1505 0
-1461 -1506 0
-1461 -1507 0
-1461 -1508 0
-1462 -1463 0
-1462 -1464 0
-1462 -1465 0
-1462 -1466 0
-1462 -1467 0
-1462 -1468 0
-1462 -1469 0
-1462 -1470 0
-1462 -1471 0
-1462 -1472 0
-1462 -1473 0
-1462 -1474 0
-1462 -1475 0
-1462 -1476 0
-1462 -1477 0
-1462 -1478 0
-1462 -1479 0
-1462 -1480 0
-1462 -1481 0
-1462 -1482 0
-1462 -1483 0
-1462 -1484 0
-1462 -1485 0
-1462 -1486 0
-1462 -1487 0
-1462 -1488 0
-1462 -1489 0
-1462 -1490 0
-1462 -1491 0
-1462 -1492 0
-1462 -1493 0
-1462 -1494 0
-1462 -1495 0
-1462 -1496 0
-1462 -1497 0
-1462 -1498 0
-1462 -1499 0
-1462 -1500 0
-1462 -1501 0
-1462 -1502 0
-1462 -1503 0
-1462 -1504 0
-1462 -1505 0
-1462 -1506 0
-1462 -1507 0
-1462 -1508 0
-1463 -1464 0
-1463 -1465 0
-1463 -1466 0
-1463 -1467 0
-1463 -1468 0
-1463 -1469 0
-1463 -1470 0
-1463 -1471 0
-1463 -1472 0
-1463 -1473 0
-1463 -1474 0
-1463 -1475 0
-1463 -1476 0
-1463 -1477 0
-1463 -1478 0
-1463 -1479 0
-1463 -1480 0
-1463 -1481 0
-1463 -1482 0
-1463 -1483 0
-1463 -1484 0
-1463 -1485 0
-1463 -1486 0
-1463 -1487 0
-1463 -1488 0
-1463 -1489 0
-1463 -1490 0
-1463 -1491 0
-1463 -1492 0
-1463 -1493 0
-1463 -1494 0
-1463 -1495 0
-1463 -1496 0
-1463 -1497 0
-1463 -1498 0
-1463 -1499 0
-1463 -1500 0
-1463 -1501 0
-1463 -1502 0
-1463 -1503 0
-1463 -1504 0
-1463 -1505 0
-1463 -1506 0
-1463 -1507 0
-1463 -1508 0
-1464 -1465 0
-1464 -1466 0
-1464 -1467 0
-1464 -1468 0
-1464 -1469 0
-1464 -1470 0
-1464 -1471 0
-1464 -1472 0
-1464 -1473 0
-1464 -1474 0
-1464 -1475 0
-1464 -1476 0
-1464 -1477 0
-1464 -1478 0
-1464 -1479 0
-1464 -1480 0
-1464 -1481 0
-1464 -1482 0
-1464 -1483 0
-1464 -1484 0
-1464 -1485 0
-1464 -1486 0
-1464 -1487 0
-1464 -1488 0
-1464 -1489 0
-1464 -1490 0
-1464 -1491 0
-1464 -1492 0
-1464 -1493 0
-1464 -1494 0
-1464 -1495 0
-1464 -1496 0
-1464 -1497 0
-1464 -1498 0
-1464 -1499 0
-1464 -1500 0
-1464 -1501 0
-1464 -1502 0
-1464 -1503 0
-1464 -1504 0
-1464 -1505 0
-1464 -1506 0
-1464 -1507 0
-1464 -1508 0
-1465 -1466 0
-1465 -1467 0
-1465 -1468 0
-1465 -1469 0
-1465 -1470 0
-1465 -1471 0
-1465 -1472 0
-1465 -1473 0
-1465 -1474 0
-1465 -1475 0
-1465 -1476 0
-1465 -1477 0
-1465 -1478 0
-1465 -1479 0
-1465 -1480 0
-1465 -1481 0
-1465 -1482 0
-1465 -1483 0
-1465 -1484 0
-1465 -1485 0
-1465 -1486 0
-1465 -1487 0
-1465 -1488 0
-1465 -1489 0
-1465 -1490 0
-1465 -1491 0
-1465 -1492 0
-1465 -1493 0
-1465 -1494 0
-1465 -1495 0
-1465 -1496 0
-1465 -1497 0
-1465 -1498 0
-1465 -1499 0
-1465 -1500 0
-1465 -1501 0
-1465 -1502 0
-1465 -1503 0
-1465 -1504 0
-1465 -1505 0
-1465 -1506 0
-1465 -1507 0
-1465 -1508 0
-1466 -1467 0
-1466 -1468 0
-1466 -1469 0
-1466 -1470 0
-1466 -1471 0
-1466 -1472 0
-1466 -1473 0
-1466 -1474 0
-1466 -1475 0
-1466 -1476 0
-1466 -1477 0
-1466 -1478 0
-1466 -1479 0
-1466 -1480 0
-1466 -1481 0
-1466 -1482 0
-1466 -1483 0
-1466 -1484 0
-1466 -1485 0
-1466 -1486 0
-1466 -1487 0
-1466 -1488 0
-1466 -1489 0
-1466 -1490 0
-1466 -1491 0
-1466 -1492 0
-1466 -1493 0
-1466 -1494 0
-1466 -1495 0
-1466 -1496 0
-1466 -1497 0
-1466 -1498 0
-1466 -1499 0
-1466 -1500 0
-1466 -1501 0
-1466 -1502 0
-1466 -1503 0
-1466 -1504 0
-1466 -1505 0
-1466 -1506 0
-1466 -1507 0
-1466 -1508 0
-1467 -1468 0
-1467 -1469 0
-1467 -1470 0
-1467 -1471 0
-1467 -1472 0
-1467 -1473 0
-1467 -1474 0
-1467 -1475 0
-1467 -1476 0
-1467 -1477 0
-1467 -1478 0
-1467 -1479 0
-1467 -1480 0
-1467 -1481 0
-1467 -1482 0
-1467 -1483 0
-1467 -1484 0
-1467 -1485 0
-1467 -1486 0
-1467 -1487 0
-1467 -1488 0
-1467 -1489 0
-1467 -1490 0
-1467 -1491 0
-1467 -1492 0
-1467 -1493 0
-1467 -1494 0
-1467 -1495 0
-1467 -1496 0
-1467 -1497 0
-1467 -1498 0
-1467 -1499 0
-1467 -1500 0
-1467 -1501 0
-1467 -1502 0
-1467 -1503 0
-1467 -1504 0
-1467 -1505 0
-1467 -1506 0
-1467 -1507 0
-1467 -1508 0
-1468 -1469 0
-1468 -1470 0
-1468 -1471 0
-1468 -1472 0
-1468 -1473 0
-1468 -1474 0
-1468 -1475 0
-1468 -1476 0
-1468 -1477 0
-1468 -1478 0
-1468 -1479 0
-1468 -1480 0
-1468 -1481 0
-1468 -1482 0
-1468 -1483 0
-1468 -1484 0
-1468 -1485 0
-1468 -1486 0
-1468 -1487 0
-1468 -1488 0
-1468 -1489 0
-1468 -1490 0
-1468 -1491 0
-1468 -1492 0
-1468 -1493 0
-1468 -1494 0
-1468 -1495 0
-1468 -1496 0
-1468 -1497 0
-1468 -1498 0
-1468 -1499 0
-1468 -1500 0
-1468 -1501 0
-1468 -1502 0
-1468 -1503 0
-1468 -1504 0
-1468 -1505 0
-1468 -1506 0
-1468 -1507 0
-1468 -1508 0
-1469 -1470 0
-1469 -1471 0
-1469 -1472 0
-1469 -1473 0
-1469 -1474 0
-1469 -1475 0
-1469 -1476 0
-1469 -1477 0
-1469 -1478 0
-1469 -1479 0
-1469 -1480 0
-1469 -1481 0
-1469 -1482 0
-1469 -1483 0
-1469 -1484 0
-1469 -1485 0
-1469 -1486 0
-1469 -1487 0
-1469 -1488 0
-1469 -1489 0
-1469 -1490 0
-1469 -1491 0
-1469 -1492 0
-1469 -1493 0
-1469 -1494 0
-1469 -1495 0
-1469 -1496 0
-1469 -1497 0
-1469 -1498 0
-1469 -1499 0
-1469 -1500 0
-1469 -1501 0
-1469 -1502 0
-1469 -1503 0
-1469 -1504 0
-1469 -1505 0
-1469 -1506 0
-1469 -1507 0
-1469 -1508 0
-1470 -1471 0
-1470 -1472 0
-1470 -1473 0
-1470 -1474 0
-1470 -1475 0
-1470 -1476 0
-1470 -1477 0
-1470 -1478 0
-1470 -1479 0
-1470 -1480 0
-1470 -1481 0
-1470 -1482 0
-1470 -1483 0
-1470 -1484 0
-1470 -1485 0
-1470 -1486 0
-1470 -1487 0
-1470 -1488 0
-1470 -1489 0
-1470 -1490 0
-1470 -1491 0
-1470 -1492 0
-1470 -1493 0
-1470 -1494 0
-1470 -1495 0
-1470 -1496 0
-1470 -1497 0
-1470 -1498 0
-1470 -1499 0
-1470 -1500 0
-1470 -1501 0
-1470 -1502 0
-1470 -1503 0
-1470 -1504 0
-1470 -1505 0
-1470 -1506 0
-1470 -1507 0
-1470 -1508 0
-1471 -1472 0
-1471 -1473 0
-1471 -1474 0
-1471 -1475 0
-1471 -1476 0
-1471 -1477 0
-1471 -1478 0
-1471 -1479 0
-1471 -1480 0
-1471 -1481 0
-1471 -1482 0
-1471 -1483 0
-1471 -1484 0
-1471 -1485 0
-1471 -1486 0
-1471 -1487 0
-1471 -1488 0
-1471 -1489 0
-1471 -1490 0
-1471 -1491 0
-1471 -1492 0
-1471 -1493 0
-1471 -1494 0
-1471 -1495 0
-1471 -1496 0
-1471 -1497 0
-1471 -1498 0
-1471 -1499 0
-1471 -1500 0
-1471 -1501 0
-1471 -1502 0
-1471 -1503 0
-1471 -1504 0
-1471 -1505 0
-1471 -1506 0
-1471 -1507 0
-1471 -1508 0
-1472 -1473 0
-1472 -1474 0
-1472 -1475 0
-1472 -1476 0
-1472 -1477 0
-1472 -1478 0
-1472 -1479 0
-1472 -1480 0
-1472 -1481 0
-1472 -1482 0
-1472 -1483 0
-1472 -1484 0
-1472 -1485 0
-1472 -1486 0
-1472 -1487 0
-1472 -1488 0
-1472 -1489 0
-1472 -1490 0
-1472 -1491 0
-1472 -1492 0
-1472 -1493 0
-1472 -1494 0
-1472 -1495 0
-1472 -1496 0
-1472 -1497 0
-1472 -1498 0
-1472 -1499 0
-1472 -1500 0
-1472 -1501 0
-1472 -1502 0
-1472 -1503 0
-1472 -1504 0
-1472 -1505 0
-1472 -1506 0
-1472 -1507 0
-1472 -1508 0
-1473 -1474 0
-1473 -1475 0
-1473 -1476 0
-1473 -1477 0
-1473 -1478 0
-1473 -1479 0
-1473 -1480 0
-1473 -1481 0
-1473 -1482 0
-1473 -1483 0
-1473 -1484 0
-1473 -1485 0
-1473 -1486 0
-1473 -1487 0
-1473 -1488 0
-1473 -1489 0
-1473 -1490 0
-1473 -1491 0
-1473 -1492 0
-1473 -1493 0
-1473 -1494 0
-1473 -1495 0
-1473 -1496 0
-1473 -1497 0
-1473 -1498 0
-1473 -1499 0
-1473 -1500 0
-1473 -1501 0
-1473 -1502 0
-1473 -1503 0
-1473 -1504 0
-1473 -1505 0
-1473 -1506 0
-1473 -1507 0
-1473 -1508 0
-1474 -1475 0
-1474 -1476 0
-1474 -1477 0
-1474 -1478 0
-1474 -1479 0
-1474 -1480 0
-1474 -1481 0
-1474 -1482 0
-1474 -1483 0
-1474 -1484 0
-1474 -1485 0
-1474 -1486 0
-1474 -1487 0
-1474 -1488 0
-1474 -1489 0
-1474 -1490 0
-1474 -1491 0
-1474 -1492 0
-1474 -1493 0
-1474 -1494 0
-1474 -1495 0
-1474 -1496 0
-1474 -1497 0
-1474 -1498 0
-1474 -1499 0
-1474 -1500 0
-1474 -1501 0
-1474 -1502 0
-1474 -1503 0
-1474 -1504 0
-1474 -1505 0
-1474 -1506 0
-1474 -1507 0
-1474 -1508 0
-1475 -1476 0
-1475 -1477 0
-1475 -1478 0
-1475 -1479 0
-1475 -1480 0
-1475 -1481 0
-1475 -1482 0
-1475 -1483 0
-1475 -1484 0
-1475 -1485 0
-1475 -1486 0
-1475 -1487 0
-1475 -1488 0
-1475 -1489 0
-1475 -1490 0
-1475 -1491 0
-1475 -1492 0
-1475 -1493 0
-1475 -1494 0
-1475 -1495 0
-1475 -1496 0
-1475 -1497 0
-1475 -1498 0
-1475 -1499 0
-1475 -1500 0
-1475 -1501 0
-1475 -1502 0
-1475 -1503 0
-1475 -1504 0
-1475 -1505 0
-1475 -1506 0
-1475 -1507 0
-1475 -1508 0
-1476 -1477 0
-1476 -1478 0
-1476 -1479 0
-1476 -1480 0
-1476 -1481 0
-1476 -1482 0
-1476 -1483 0
-1476 -1484 0
-1476 -1485 0
-1476 -1486 0
-1476 -1487 0
-1476 -1488 0
-1476 -1489 0
-1476 -1490 0
-1476 -1491 0
-1476 -1492 0
-1476 -1493 0
-1476 -1494 0
-1476 -1495 0
-1476 -1496 0
-1476 -1497 0
-1476 -1498 0
-1476 -1499 0
-1476 -1500 0
-1476 -1501 0
-1476 -1502 0
-1476 -1503 0
-1476 -1504 0
-1476 -1505 0
-1476 -1506 0
-1476 -1507 0
-1476 -1508 0
-1477 -1478 0
-1477 -1479 0
-1477 -1480 0
-1477 -1481 0
-1477 -1482 0
-1477 -1483 0
-1477 -1484 0
-1477 -1485 0
-1477 -1486 0
-1477 -1487 0
-1477 -1488 0
-1477 -1489 0
-1477 -1490 0
-1477 -1491 0
-1477 -1492 0
-1477 -1493 0
-1477 -1494 0
-1477 -1495 0
-1477 -1496 0
-1477 -1497 0
-1477 -1498 0
-1477 -1499 0
-1477 -1500 0
-1477 -1501 0
-1477 -1502 0
-1477 -1503 0
-1477 -1504 0
-1477 -1505 0
-1477 -1506 0
-1477 -1507 0
-1477 -1508 0
-1478 -1479 0
-1478 -1480 0
-1478 -1481 0
-1478 -1482 0
-1478 -1483 0
-1478 -1484 0
-1478 -1485 0
-1478 -1486 0
-1478 -1487 0
-1478 -1488 0
-1478 -1489 0
-1478 -1490 0
-1478 -1491 0
-1478 -1492 0
-1478 -1493 0
-1478 -1494 0
-1478 -1495 0
-1478 -1496 0
-1478 -1497 0
-1478 -1498 0
-1478 -1499 0
-1478 -1500 0
-1478 -1501 0
-1478 -1502 0
-1478 -1503 0
-1478 -1504 0
-1478 -1505 0
-1478 -1506 0
-1478 -1507 0
-1478 -1508 0
-1479 -1480 0
-1479 -1481 0
-1479 -1482 0
-1479 -1483 0
-1479 -1484 0
-1479 -1485 0
-1479 -1486 0
-1479 -1487 0
-1479 -1488 0
-1479 -1489 0
-1479 -1490 0
-1479 -1491 0
-1479 -1492 0
-1479 -1493 0
-1479 -1494 0
-1479 -1495 0
-1479 -1496 0
-1479 -1497 0
-1479 -1498 0
-1479 -1499 0
-1479 -1500 0
-1479 -1501 0
-1479 -1502 0
-1479 -1503 0
-1479 -1504 0
-1479 -1505 0
-1479 -1506 0
-1479 -1507 0
-1479 -1508 0
-1480 -1481 0
-1480 -1482 0
-1480 -1483 0
-1480 -1484 0
-1480 -1485 0
-1480 -1486 0
-1480 -1487 0
-1480 -1488 0
-1480 -1489 0
-1480 -1490 0
-1480 -1491 0
-1480 -1492 0
-1480 -1493 0
-1480 -1494 0
-1480 -1495 0
-1480 -1496 0
-1480 -1497 0
-1480 -1498 0
-1480 -1499 0
-1480 -1500 0
-1480 -1501 0
-1480 -1502 0
-1480 -1503 0
-1480 -1504 0
-1480 -1505 0
-1480 -1506 0
-1480 -1507 0
-1480 -1508 0
-1481 -1482 0
-1481 -1483 0
-1481 -1484 0
-1481 -1485 0
-1481 -1486 0
-1481 -1487 0
-1481 -1488 0
-1481 -1489 0
-1481 -1490 0
-1481 -1491 0
-1481 -1492 0
-1481 -1493 0
-1481 -1494 0
-1481 -1495 0
-1481 -1496 0
-1481 -1497 0
-1481 -1498 0
-1481 -1499 0
-1481 -1500 0
-1481 -1501 0
-1481 -1502 0
-1481 -1503 0
-1481 -1504 0
-1481 -1505 0
-1481 -1506 0
-1481 -1507 0
-1481 -1508 0
-1482 -1483 0
-1482 -1484 0
-1482 -1485 0
-1482 -1486 0
-1482 -1487 0
-1482 -1488 0
-1482 -1489 0
-1482 -1490 0
-1482 -1491 0
-1482 -1492 0
-1482 -1493 0
-1482 -1494 0
-1482 -1495 0
-1482 -1496 0
-1482 -1497 0
-1482 -1498 0
-1482 -1499 0
-1482 -1500 0
-1482 -1501 0
-1482 -1502 0
-1482 -1503 0
-1482 -1504 0
-1482 -1505 0
-1482 -1506 0
-1482 -1507 0
-1482 -1508 0
-1483 -1484 0
-1483 -1485 0
-1483 -1486 0
-1483 -1487 0
-1483 -1488 0
-1483 -1489 0
-1483 -1490 0
-1483 -1491 0
-1483 -1492 0
-1483 -1493 0
-1483 -1494 0
-1483 -1495 0
-1483 -1496 0
-1483 -1497 0
-1483 -1498 0
-1483 -1499 0
-1483 -1500 0
-1483 -1501 0
-1483 -1502 0
-1483 -1503 0
-1483 -1504 0
-1483 -1505 0
-1483 -1506 0
-1483 -1507 0
-1483 -1508 0
-1484 -1485 0
-1484 -1486 0
-1484 -1487 0
-1484 -1488 0
-1484 -1489 0
-1484 -1490 0
-1484 -1491 0
-1484 -1492 0
-1484 -1493 0
-1484 -1494 0
-1484 -1495 0
-1484 -1496 0
-1484 -1497 0
-1484 -1498 0
-1484 -1499 0
-1484 -1500 0
-1484 -1501 0
-1484 -1502 0
-1484 -1503 0
-1484 -1504 0
-1484 -1505 0
-1484 -1506 0
-1484 -1507 0
-1484 -1508 0
-1485 -1486 0
-1485 -1487 0
-1485 -1488 0
-1485 -1489 0
-1485 -1490 0
-1485 -1491 0
-1485 -1492 0
-1485 -1493 0
-1485 -1494 0
-1485 -1495 0
-1485 -1496 0
-1485 -1497 0
-1485 -1498 0
-1485 -1499 0
-1485 -1500 0
-1485 -1501 0
-1485 -1502 0
-1485 -1503 0
-1485 -1504 0
-1485 -1505 0
-1485 -1506 0
-1485 -1507 0
-1485 -1508 0
-1486 -1487 0
-1486 -1488 0
-1486 -1489 0
-1486 -1490 0
-1486 -1491 0
-1486 -1492 0
-1486 -1493 0
-1486 -1494 0
-1486 -1495 0
-1486 -1496 0
-1486 -1497 0
-1486 -1498 0
-1486 -1499 0
-1486 -1500 0
-1486 -1501 0
-1486 -1502 0
-1486 -1503 0
-1486 -1504 0
-1486 -1505 0
-1486 -1506 0
-1486 -1507 0
-1486 -1508 0
-1487 -1488 0
-1487 -1489 0
-1487 -1490 0
-1487 -1491 0
-1487 -1492 0
-1487 -1493 0
-1487 -1494 0
-1487 -1495 0
-1487 -1496 0
-1487 -1497 0
-1487 -1498 0
-1487 -1499 0
-1487 -1500 0
-1487 -1501 0
-1487 -1502 0
-1487 -1503 0
-1487 -1504 0
-1487 -1505 0
-1487 -1506 0
-1487 -1507 0
-1487 -1508 0
-1488 -1489 0
-1488 -1490 0
-1488 -1491 0
-1488 -1492 0
-1488 -1493 0
-1488 -1494 0
-1488 -1495 0
-1488 -1496 0
-1488 -1497 0
-1488 -1498 0
-1488 -1499 0
-1488 -1500 0
-1488 -1501 0
-1488 -1502 0
-1488 -1503 0
-1488 -1504 0
-1488 -1505 0
-1488 -1506 0
-1488 -1507 0
-1488 -1508 0
-1489 -1490 0
-1489 -1491 0
-1489 -1492 0
-1489 -1493 0
-1489 -1494 0
-1489 -1495 0
-1489 -1496 0
-1489 -1497 0
-1489 -1498 0
-1489 -1499 0
-1489 -1500 0
-1489 -1501 0
-1489 -1502 0
-1489 -1503 0
-1489 -1504 0
-1489 -1505 0
-1489 -1506 0
-1489 -1507 0
-1489 -1508 0
-1490 -1491 0
-1490 -1492 0
-1490 -1493 0
-1490 -1494 0
-1490 -1495 0
-1490 -1496 0
-1490 -1497 0
-1490 -1498 0
-1490 -1499 0
-1490 -1500 0
-1490 -1501 0
-1490 -1502 0
-1490 -1503 0
-1490 -1504 0
-1490 -1505 0
-1490 -1506 0
-1490 -1507 0
-1490 -1508 0
-1491 -1492 0
-1491 -1493 0
-1491 -1494 0
-1491 -1495 0
-1491 -1496 0
-1491 -1497 0
-1491 -1498 0
-1491 -1499 0
-1491 -1500 0
-1491 -1501 0
-1491 -1502 0
-1491 -1503 0
-1491 -1504 0
-1491 -1505 0
-1491 -1506 0
-1491 -1507 0
-1491 -1508 0
-1492 -1493 0
-1492 -1494 0
-1492 -1495 0
-1492 -1496 0
-1492 -1497 0
-1492 -1498 0
-1492 -1499 0
-1492 -1500 0
-1492 -1501 0
-1492 -1502 0
-1492 -1503 0
-1492 -1504 0
-1492 -1505 0
-1492 -1506 0
-1492 -1507 0
-1492 -1508 0
-1493 -1494 0
-1493 -1495 0
-1493 -1496 0
-1493 -1497 0
-1493 -1498 0
-1493 -1499 0
-1493 -1500 0
-1493 -1501 0
-1493 -1502 0
-1493 -1503 0
-1493 -1504 0
-1493 -1505 0
-1493 -1506 0
-1493 -1507 0
-1493 -1508 0
-1494 -1495 0
-1494 -1496 0
-1494 -1497 0
-1494 -1498 0
-1494 -1499 0
-1494 -1500 0
-1494 -1501 0
-1494 -1502 0
-1494 -1503 0
-1494 -1504 0
-1494 -1505 0
-1494 -1506 0
-1494 -1507 0
-1494 -1508 0
-1495 -1496 0
-1495 -1497 0
-1495 -1498 0
-1495 -1499 0
-1495 -1500 0
-1495 -1501 0
-1495 -1502 0
-1495 -1503 0
-1495 -1504 0
-1495 -1505 0
-1495 -1506 0
-1495 -1507 0
-1495 -1508 0
-1496 -1497 0
-1496 -1498 0
-1496 -1499 0
-1496 -1500 0
-1496 -1501 0
-1496 -1502 0
-1496 -1503 0
-1496 -1504 0
-1496 -1505 0
-1496 -1506 0
-1496 -1507 0
-1496 -1508 0
-1497 -1498 0
-1497 -1499 0
-1497 -1500 0
-1497 -1501 0
-1497 -1502 0
-1497 -1503 0
-1497 -1504 0
-1497 -1505 0
-1497 -1506 0
-1497 -1507 0
-1497 -1508 0
-1498 -1499 0
-1498 -1500 0
-1498 -1501 0
-1498 -1502 0
-1498 -1503 0
-1498 -1504 0
-1498 -1505 0
-1498 -1506 0
-1498 -1507 0
-1498 -1508 0
-1499 -1500 0
-1499 -1501 0
-1499 -1502 0
-1499 -1503 0
-1499 -1504 0
-1499 -1505 0
-1499 -1506 0
-1499 -1507 0
-1499 -1508 0
-1500 -1501 0
-1500 -1502 0
-1500 -1503 0
-1500 -1504 0
-1500 -1505 0
-1500 -1506 0
-1500 -1507 0
-1500 -1508 0
-1501 -1502 0
-1501 -1503 0
-1501 -1504 0
-1501 -1505 0
-1501 -1506 0
-1501 -1507 0
-1501 -1508 0
-1502 -1503 0
-1502 -1504 0
-1502 -1505 0
-1502 -1506 0
-1502 -1507 0
-1502 -1508 0
-1503 -1504 0
-1503 -1505 0
-1503 -1506 0
-1503 -1507 0
-1503 -1508 0
-1504 -1505 0
-1504 -1506 0
-1504 -1507 0
-1504 -1508 0
-1505 -1506 0
-1505 -1507 0
-1505 -1508 0
-1506 -1507 0
-1506 -1508 0
-1507 -1508 0
-1406 33 1458 0
-1406 -33 1457 0
-1407 33 1459 0
-1407 -33 1458 0
-1408 33 1460 0
-1408 -33 1459 0
-1409 33 1461 0
-1409 -33 1460 0
-1410 33 1462 0
-1410 -33 1461 0
-1411 33 1463 0
-1411 -33 1462 0
-1412 33 1464 0
-1412 -33 1463 0
-1413 33 1465 0
-1413 -33 1464 0
-1414 33 1466 0
-1414 -33 1465 0
-1415 33 1467 0
-1415 -33 1466 0
-1416 33 1468 0
-1416 -33 1467 0
-1417 33 1469 0
-1417 -33 1468 0
-1418 33 1470 0
-1418 -33 1469 0
-1419 33 1471 0
-1419 -33 1470 0
-1420 33 1472 0
-1420 -33 1471 0
-1421 33 1473 0
-1421 -33 1472 0
-1422 33 1474 0
-1422 -33 1473 0
-1423 33 1475 0
-1423 -33 1474 0
-1424 33 1476 0
-1424 -33 1475 0
-1425 33 1477 0
-1425 -33 1476 0
-1426 33 1478 0
-1426 -33 1477 0
-1427 33 1479 0
-1427 -33 1478 0
-1428 33 1480 0
-1428 -33 1479 0
-1429 33 1481 0
-1429 -33 1480 0
-1430 33 1482 0
-1430 -33 1481 0
-1431 33 1483 0
-1431 -33 1482 0
-1432 33 1484 0
-1432 -33 1483 0
-1433 33 1485 0
-1433 -33 1484 0
-1434 33 1486 0
-1434 -33 1485 0
-1435 33 1487 0
-1435 -33 1486 0
-1436 33 1488 0
-1436 -33 1487 0
-1437 33 1489 0
-1437 -33 1488 0
-1438 33 1490 0
-1438 -33 1489 0
-1439 33 1491 0
-1439 -33 1490 0
-1440 33 1492 0
-1440 -33 1491 0
-1441 33 1493 0
-1441 -33 1492 0
-1442 33 1494 0
-1442 -33 1493 0
-1443 33 1495 0
-1443 -33 1494 0
-1444 33 1496 0
-1444 -33 1495 0
-1445 33 1497 0
-1445 -33 1496 0
-1446 33 1498 0
-1446 -33 1497 0
-1447 33 1499 0
-1447 -33 1498 0
-1448 33 1500 0
-1448 -33 1499 0
-1449 33 1501 0
-1449 -33 1500 0
-1450 33 1502 0
-1450 -33 1501 0
-1451 33 1503 0
-1451 -33 1502 0
-1452 33 1504 0
-1452 -33 1503 0
-1453 33 1505 0
-1453 -33 1504 0
-1454 33 1506 0
-1454 -33 1505 0
-1455 33 1507 0
-1455 -33 1506 0
-1456 33 1508 0
-1456 -33 1507 0
1509 1510 1511 1512 1513 1514 1515 1516 1517 1518 1519 1520 1521 1522 1523 1524 1525 1526 1527 1528 1529 1530 1531 1532 1533 1534 1535 1536 1537 1538 1539 1540 1541 1542 1543 1544 1545 1546 1547 1548 1549 1550 1551 1552 1553 1554 1555 1556 1557 1558 1559 1560 1561 0
-1509 -1510 0
-1509 -1511 0
-1509 -1512 0
-1509 -1513 0
-1509 -1514 0
-1509 -1515 0
-1509 -1516 0
-1509 -1517 0
-1509 -1518 0
-1509 -1519 0
-1509 -1520 0
-1509 -1521 0
-1509 -1522 0
-1509 -1523 0
-1509 -1524 0
-1509 -1525 0
-1509 -1526 0
-1509 -1527 0
-1509 -1528 0
-1509 -1529 0
-1509 -1530 0
-1509 -1531 0
-1509 -1532 0
-1509 -1533 0
-1509 -1534 0
-1509 -1535 0
-1509 -1536 0
-1509 -1537 0
-1509 -1538 0
-1509 -1539 0
-1509 -1540 0
-1509 -1541 0
-1509 -1542 0
-1509 -1543 0
-1509 -1544 0
-1509 -1545 0
-1509 -1546 0
-1509 -1547 0
-1509 -1548 0
-1509 -1549 0
-1509 -1550 0
-1509 -1551 0
-1509 -1552 0
-1509 -1553 0
-1509 -1554 0
-1509 -1555 0
-1509 -1556 0
-1509 -1557 0
-1509 -1558 0
-1509 -1559 0
-1509 -1560 0
-1509 -1561 0
-1510 -1511 0
-1510 -1512 0
-1510 -1513 0
-1510 -1514 0
-1510 -1515 0
-1510 -1516 0
-1510 -1517 0
-1510 -1518 0
-1510 -1519 0
-1510 -1520 0
-1510 -1521 0
-1510 -1522 0
-1510 -1523 0
-1510 -1524 0
-1510 -1525 0
-1510 -1526 0
-1510 -1527 0
-1510 -1528 0
-1510 -1529 0
-1510 -1530 0
-1510 -1531 0
-1510 -1532 0
-1510 -1533 0
-1510 -1534 0
-1510 -1535 0
-1510 -1536 0
-1510 -1537 0
-1510 -1538 0
-1510 -1539 0
-1510 -1540 0
-1510 -1541 0
-1510 -1542 0
-1510 -1543 0
-1510 -1544 0
-1510 -1545 0
-1510 -1546 0
-1510 -1547 0
-1510 -1548 0
-1510 -1549 0
-1510 -1550 0
-1510 -1551 0
-1510 -1552 0
-1510 -1553 0
-1510 -1554 0
-1510 -1555 0
-1510 -1556 0
-1510 -1557 0
-1510 -1558 0
-1510 -1559 0
-1510 -1560 0
-1510 -1561 0
-1511 -1512 0
-1511 -1513 0
-1511 -1514 0
-1511 -1515 0
-1511 -1516 0
-1511 -1517 0
-1511 -1518 0
-1511 -1519 0
-1511 -1520 0
-1511 -1521 0
-1511 -1522 0
-1511 -1523 0
-1511 -1524 0
-1511 -1525 0
-1511 -1526 0
-1511 -1527 0
-1511 -1528 0
-1511 -1529 0
-1511 -1530 0
-1511 -1531 0
-1511 -1532 0
-1511 -1533 0
-1511 -1534 0
-1511 -1535 0
-1511 -1536 0
-1511 -1537 0
-1511 -1538 0
-1511 -1539 0
-1511 -1540 0
-1511 -1541 0
-1511 -1542 0
-1511 -1543 0
-1511 -1544 0
-1511 -1545 0
-1511 -1546 0
-1511 -1547 0
-1511 -1548 0
-1511 -1549 0
-1511 -1550 0
-1511 -1551 0
-1511 -1552 0
-1511 -1553 0
-1511 -1554 0
-1511 -1555 0
-1511 -1556 0
-1511 -1557 0
-1511 -1558 0
-1511 -1559 0
-1511 -1560 0
-1511 -1561 0
-1512 -1513 0
-1512 -1514 0
-1512 -1515 0
-1512 -1516 0
-1512 -1517 0
-1512 -1518 0
-1512 -1519 0
-1512 -1520 0
-1512 -1521 0
-1512 -1522 0
-1512 -1523 0
-1512 -1524 0
-1512 -1525 0
-1512 -1526 0
-1512 -1527 0
-1512 -1528 0
-1512 -1529 0
-1512 -1530 0
-1512 -1531 0
-1512 -1532 0
-1512 -1533 0
-1512 -1534 0
-1512 -1535 0
-1512 -1536 0
-1512 -1537 0
-1512 -1538 0
-1512 -1539 0
-1512 -1540 0
-1512 -1541 0
-1512 -1542 0
-1512 -1543 0
-1512 -1544 0
-1512 -1545 0
-1512 -1546 0
-1512 -1547 0
-1512 -1548 0
-1512 -1549 0
-1512 -1550 0
-1512 -1551 0
-1512 -1552 0
-1512 -1553 0
-1512 -1554 0
-1512 -1555 0
-1512 -1556 0
-1512 -1557 0
-1512 -1558 0
-1512 -1559 0
-1512 -1560 0
-1512 -1561 0
-1513 -1514 0
-1513 -1515 0
-1513 -1516 0
-1513 -1517 0
-1513 -1518 0
-1513 -1519 0
-1513 -1520 0
-1513 -1521 0
-1513 -1522 0
-1513 -1523 0
-1513 -1524 0
-1513 -1525 0
-1513 -1526 0
-1513 -1527 0
-1513 -1528 0
-1513 -1529 0
-1513 -1530 0
-1513 -1531 0
-1513 -1532 0
-1513 -1533 0
-1513 -1534 0
-1513 -1535 0
-1513 -1536 0
-1513 -1537 0
-1513 -1538 0
-1513 -1539 0
-1513 -1540 0
-1513 -1541 0
-1513 -1542 0
-1513 -1543 0
-1513 -1544 0
-1513 -1545 0
-1513 -1546 0
-1513 -1547 0
-1513 -1548 0
-1513 -1549 0
-1513 -1550 0
-1513 -1551 0
-1513 -1552 0
-1513 -1553 0
-1513 -1554 0
-1513 -1555 0
-1513 -1556 0
-1513 -1557 0
-1513 -1558 0
-1513 -1559 0
-1513 -1560 0
-1513 -1561 0
-1514 -1515 0
-1514 -1516 0
-1514 -1517 0
-1514 -1518 0
-1514 -1519 0
-1514 -1520 0
-1514 -1521 0
-1514 -1522 0
-1514 -1523 0
-1514 -1524 0
-1514 -1525 0
-1514 -1526 0
-1514 -1527 0
-1514 -1528 0
-1514 -1529 0
-1514 -1530 0
-1514 -1531 0
-1514 -1532 0
-1514 -1533 0
-1514 -1534 0
-1514 -1535 0
-1514 -1536 0
-1514 -1537 0
-1514 -1538 0
-1514 -1539 0
-1514 -1540 0
-1514 -1541 0
-1514 -1542 0
-1514 -1543 0
-1514 -1544 0
-1514 -1545 0
-1514 -1546 0
-1514 -1547 0
-1514 -1548 0
-1514 -1549 0
-1514 -1550 0
-1514 -1551 0
-1514 -1552 0
-1514 -1553 0
-1514 -1554 0
-1514 -1555 0
-1514 -1556 0
-1514 -1557 0
-1514 -1558 0
-1514 -1559 0
-1514 -1560 0
-1514 -1561 0
-1515 -1516 0
-1515 -1517 0
-1515 -1518 0
-1515 -1519 0
-1515 -1520 0
-1515 -1521 0
-1515 -1522 0
-1515 -1523 0
-1515 -1524 0
-1515 -1525 0
-1515 -1526 0
-1515 -1527 0
-1515 -1528 0
-1515 -1529 0
-1515 -1530 0
-1515 -1531 0
-1515 -1532 0
-1515 -1533 0
-1515 -1534 0
-1515 -1535 0
-1515 -1536 0
-1515 -1537 0
-1515 -1538 0
-1515 -1539 0
-1515 -1540 0
-1515 -1541 0
-1515 -1542 0
-1515 -1543 0
-1515 -1544 0
-1515 -1545 0
-1515 -1546 0
-1515 -1547 0
-1515 -1548 0
-1515 -1549 0
-1515 -1550 0
-1515 -1551 0
-1515 -1552 0
-1515 -1553 0
-1515 -1554 0
-1515 -1555 0
-1515 -1556 0
-1515 -1557 0
-1515 -1558 0
-1515 -1559 0
-1515 -1560 0
-1515 -1561 0
-1516 -1517 0
-1516 -1518 0
-1516 -1519 0
-1516 -1520 0
-1516 -1521 0
-1516 -1522 0
-1516 -1523 0
-1516 -1524 0
-1516 -1525 0
-1516 -1526 0
-1516 -1527 0
-1516 -1528 0
-1516 -1529 0
-1516 -1530 0
-1516 -1531 0
-1516 -1532 0
-1516 -1533 0
-1516 -1534 0
-1516 -1535 0
-1516 -1536 0
-1516 -1537 0
-1516 -1538 0
-1516 -1539 0
-1516 -1540 0
-1516 -1541 0
-1516 -1542 0
-1516 -1543 0
-1516 -1544 0
-1516 -1545 0
-1516 -1546 0
-1516 -1547 0
-1516 -1548 0
-1516 -1549 0
-1516 -1550 0
-1516 -1551 0
-1516 -1552 0
-1516 -1553 0
-1516 -1554 0
-1516 -1555 0
-1516 -1556 0
-1516 -1557 0
-1516 -1558 0
-1516 -1559 0
-1516 -1560 0
-1516 -1561 0
-1517 -1518 0
-1517 -1519 0
-1517 -1520 0
-1517 -1521 0
-1517 -1522 0
-1517 -1523 0
-1517 -1524 0
-1517 -1525 0
-1517 -1526 0
-1517 -1527 0
-1517 -1528 0
-1517 -1529 0
-1517 -1530 0
-1517 -1531 0
-1517 -1532 0
-1517 -1533 0
-1517 -1534 0
-1517 -1535 0
-1517 -1536 0
-1517 -1537 0
-1517 -1538 0
-1517 -1539 0
-1517 -1540 0
-1517 -1541 0
-1517 -1542 0
-1517 -1543 0
-1517 -1544 0
-1517 -1545 0
-1517 -1546 0
-1517 -1547 0
-1517 -1548 0
-1517 -1549 0
-1517 -1550 0
-1517 -1551 0
-1517 -1552 0
-1517 -1553 0
-1517 -1554 0
-1517 -1555 0
-1517 -1556 0
-1517 -1557 0
-1517 -1558 0
-1517 -1559 0
-1517 -1560 0
-1517 -1561 0
-1518 -1519 0
-1518 -1520 0
-1518 -1521 0
-1518 -1522 0
-1518 -1523 0
-1518 -1524 0
-1518 -1525 0
-1518 -1526 0
-1518 -1527 0
-1518 -1528 0
-1518 -1529 0
-1518 -1530 0
-1518 -1531 0
-1518 -1532 0
-1518 -1533 0
-1518 -1534 0
-1518 -1535 0
-1518 -1536 0
-1518 -1537 0
-1518 -1538 0
-1518 -1539 0
-1518 -1540 0
-1518 -1541 0
-1518 -1542 0
-1518 -1543 0
-1518 -1544 0
-1518 -1545 0
-1518 -1546 0
-1518 -1547 0
-1518 -1548 0
-1518 -1549 0
-1518 -1550 0
-1518 -1551 0
-1518 -1552 0
-1518 -1553 0
-1518 -1554 0
-1518 -1555 0
-1518 -1556 0
-1518 -1557 0
-1518 -1558 0
-1518 -1559 0
-1518 -1560 0
-1518 -1561 0
-1519 -1520 0
-1519 -1521 0
-1519 -1522 0
-1519 -1523 0
-1519 -1524 0
-1519 -1525 0
-1519 -1526 0
-1519 -1527 0
-1519 -1528 0
-1519 -1529 0
-1519 -1530 0
-1519 -1531 0
-1519 -1532 0
-1519 -1533 0
-1519 -1534 0
-1519 -1535 0
-1519 -1536 0
-1519 -1537 0
-1519 -1538 0
-1519 -1539 0
-1519 -1540 0
-1519 -1541 0
-1519 -1542 0
-1519 -1543 0
-1519 -1544 0
-1519 -1545 0
-1519 -1546 0
-1519 -1547 0
-1519 -1548 0
-1519 -1549 0
-1519 -1550 0
-1519 -1551 0
-1519 -1552 0
-1519 -1553 0
-1519 -1554 0
-1519 -1555 0
-1519 -1556 0
-1519 -1557 0
-1519 -1558 0
-1519 -1559 0
-1519 -1560 0
-1519 -1561 0
-1520 -1521 0
-1520 -1522 0
-1520 -1523 0
-1520 -1524 0
-1520 -1525 0
-1520 -1526 0
-1520 -1527 0
-1520 -1528 0
-1520 -1529 0
-1520 -1530 0
-1520 -1531 0
-1520 -1532 0
-1520 -1533 0
-1520 -1534 0
-1520 -1535 0
-1520 -1536 0
-1520 -1537 0
-1520 -1538 0
-1520 -1539 0
-1520 -1540 0
-1520 -1541 0
-1520 -1542 0
-1520 -1543 0
-1520 -1544 0
-1520 -1545 0
-1520 -1546 0
-1520 -1547 0
-1520 -1548 0
-1520 -1549 0
-1520 -1550 0
-1520 -1551 0
-1520 -1552 0
-1520 -1553 0
-1520 -1554 0
-1520 -1555 0
-1520 -1556 0
-1520 -1557 0
-1520 -1558 0
-1520 -1559 0
-1520 -1560 0
-1520 -1561 0
-1521 -1522 0
-1521 -1523 0
-1521 -1524 0
-1521 -1525 0
-1521 -1526 0
-1521 -1527 0
-1521 -1528 0
-1521 -1529 0
-1521 -1530 0
-1521 -1531 0
-1521 -1532 0
-1521 -1533 0
-1521 -1534 0
-1521 -1535 0
-1521 -1536 0
-1521 -1537 0
-1521 -1538 0
-1521 -1539 0
-1521 -1540 0
-1521 -1541 0
-1521 -1542 0
-1521 -1543 0
-1521 -1544 0
-1521 -1545 0
-1521 -1546 0
-1521 -1547 0
-1521 -1548 0
-1521 -1549 0
-1521 -1550 0
-1521 -1551 0
-1521 -1552 0
-1521 -1553 0
-1521 -1554 0
-1521 -1555 0
-1521 -1556 0
-1521 -1557 0
-1521 -1558 0
-1521 -1559 0
-1521 -1560 0
-1521 -1561 0
-1522 -1523 0
-1522 -1524 0
-1522 -1525 0
-1522 -1526 0
-1522 -1527 0
-1522 -1528 0
-1522 -1529 0
-1522 -1530 0
-1522 -1531 0
-1522 -1532 0
-1522 -1533 0
-1522 -1534 0
-1522 -1535 0
-1522 -1536 0
-1522 -1537 0
-1522 -1538 0
-1522 -1539 0
-1522 -1540 0
-1522 -1541 0
-1522 -1542 0
-1522 -1543 0
-1522 -1544 0
-1522 -1545 0
-1522 -1546 0
-1522 -1547 0
-1522 -1548 0
-1522 -1549 0
-1522 -1550 0
-1522 -1551 0
-1522 -1552 0
-1522 -1553 0
-1522 -1554 0
-1522 -1555 0
-1522 -1556 0
-1522 -1557 0
-1522 -1558 0
-1522 -1559 0
-1522 -1560 0
-1522 -1561 0
-1523 -1524 0
-1523 -1525 0
-1523 -1526 0
-1523 -1527 0
-1523 -1528 0
-1523 -1529 0
-1523 -1530 0
-1523 -1531 0
-1523 -1532 0
-1523 -1533 0
-1523 -1534 0
-1523 -1535 0
-1523 -1536 0
-1523 -1537 0
-1523 -1538 0
-1523 -1539 0
-1523 -1540 0
-1523 -1541 0
-1523 -1542 0
-1523 -1543 0
-1523 -1544 0
-1523 -1545 0
-1523 -1546 0
-1523 -1547 0
-1523 -1548 0
-1523 -1549 0
-1523 -1550 0
-1523 -1551 0
-1523 -1552 0
-1523 -1553 0
-1523 -1554 0
-1523 -1555 0
-1523 -1556 0
-1523 -1557 0
-1523 -1558 0
-1523 -1559 0
-1523 -1560 0
-1523 -1561 0
-1524 -1525 0
-1524 -1526 0
-1524 -1527 0
-1524 -1528 0
-1524 -1529 0
-1524 -1530 0
-1524 -1531 0
-1524 -1532 0
-1524 -1533 0
-1524 -1534 0
-1524 -1535 0
-1524 -1536 0
-1524 -1537 0
-1524 -1538 0
-1524 -1539 0
-1524 -1540 0
-1524 -1541 0
-1524 -1542 0
-1524 -1543 0
-1524 -1544 0
-1524 -1545 0
-1524 -1546 0
-1524 -1547 0
-1524 -1548 0
-1524 -1549 0
-1524 -1550 0
-1524 -1551 0
-1524 -1552 0
-1524 -1553 0
-1524 -1554 0
-1524 -1555 0
-1524 -1556 0
-1524 -1557 0
-1524 -1558 0
-1524 -1559 0
-1524 -1560 0
-1524 -1561 0
-1525 -1526 0
-1525 -1527 0
-1525 -1528 0
-1525 -1529 0
-1525 -1530 0
-1525 -1531 0
-1525 -1532 0
-1525 -1533 0
-1525 -1534 0
-1525 -1535 0
-1525 -1536 0
-1525 -1537 0
-1525 -1538 0
-1525 -1539 0
-1525 -1540 0
-1525 -1541 0
-1525 -1542 0
-1525 -1543 0
-1525 -1544 0
-1525 -1545 0
-1525 -1546 0
-1525 -1547 0
-1525 -1548 0
-1525 -1549 0
-1525 -1550 0
-1525 -1551 0
-1525 -1552 0
-1525 -1553 0
-1525 -1554 0
-1525 -1555 0
-1525 -1556 0
-1525 -1557 0
-1525 -1558 0
-1525 -1559 0
-1525 -1560 0
-1525 -1561 0
-1526 -1527 0
-1526 -1528 0
-1526 -1529 0
-1526 -1530 0
-1526 -1531 0
-1526 -1532 0
-1526 -1533 0
-1526 -1534 0
-1526 -1535 0
-1526 -1536 0
-1526 -1537 0
-1526 -1538 0
-1526 -1539 0
-1526 -1540 0
-1526 -1541 0
-1526 -1542 0
-1526 -1543 0
-1526 -1544 0
-1526 -1545 0
-1526 -1546 0
-1526 -1547 0
-1526 -1548 0
-1526 -1549 0
-1526 -1550 0
-1526 -1551 0
-1526 -1552 0
-1526 -1553 0
-1526 -1554 0
-1526 -1555 0
-1526 -1556 0
-1526 -1557 0
-1526 -1558 0
-1526 -1559 0
-1526 -1560 0
-1526 -1561 0
-1527 -1528 0
-1527 -1529 0
-1527 -1530 0
-1527 -1531 0
-1527 -1532 0
-1527 -1533 0
-1527 -1534 0
-1527 -1535 0
-1527 -1536 0
-1527 -1537 0
-1527 -1538 0
-1527 -1539 0
-1527 -1540 0
-1527 -1541 0
-1527 -1542 0
-1527 -1543 0
-1527 -1544 0
-1527 -1545 0
-1527 -1546 0
-1527 -1547 0
-1527 -1548 0
-1527 -1549 0
-1527 -1550 0
-1527 -1551 0
-1527 -1552 0
-1527 -1553 0
-1527 -1554 0
-1527 -1555 0
-1527 -1556 0
-1527 -1557 0
-1527 -1558 0
-1527 -1559 0
-1527 -1560 0
-1527 -1561 0
-1528 -1529 0
-1528 -1530 0
-1528 -1531 0
-1528 -1532 0
-1528 -1533 0
-1528 -1534 0
-1528 -1535 0
-1528 -1536 0
-1528 -1537 0
-1528 -1538 0
-1528 -1539 0
-1528 -1540 0
-1528 -1541 0
-1528 -1542 0
-1528 -1543 0
-1528 -1544 0
-1528 -1545 0
-1528 -1546 0
-1528 -1547 0
-1528 -1548 0
-1528 -1549 0
-1528 -1550 0
-1528 -1551 0
-1528 -1552 0
-1528 -1553 0
-1528 -1554 0
-1528 -1555 0
-1528 -1556 0
-1528 -1557 0
-1528 -1558 0
-1528 -1559 0
-1528 -1560 0
-1528 -1561 0
-1529 -1530 0
-1529 -1531 0
-1529 -1532 0
-1529 -1533 0
-1529 -1534 0
-1529 -1535 0
-1529 -1536 0
-1529 -1537 0
-1529 -1538 0
-1529 -1539 0
-1529 -1540 0
-1529 -1541 0
-1529 -1542 0
-1529 -1543 0
-1529 -1544 0
-1529 -1545 0
-1529 -1546 0
-1529 -1547 0
-1529 -1548 0
-1529 -1549 0
-1529 -1550 0
-1529 -1551 0
-1529 -1552 0
-1529 -1553 0
-1529 -1554 0
-1529 -1555 0
-1529 -1556 0
-1529 -1557 0
-1529 -1558 0
-1529 -1559 0
-1529 -1560 0
-1529 -1561 0
-1530 -1531 0
-1530 -1532 0
-1530 -1533 0
-1530 -1534 0
-1530 -1535 0
-1530 -1536 0
-1530 -1537 0
-1530 -1538 0
-1530 -1539 0
-1530 -1540 0
-1530 -1541 0
-1530 -1542 0
-1530 -1543 0
-1530 -1544 0
-1530 -1545 0
-1530 -1546 0
-1530 -1547 0
-1530 -1548 0
-1530 -1549 0
-1530 -1550 0
-1530 -1551 0
-1530 -1552 0
-1530 -1553 0
-1530 -1554 0
-1530 -1555 0
-1530 -1556 0
-1530 -1557 0
-1530 -1558 0
-1530 -1559 0
-1530 -1560 0
-1530 -1561 0
-1531 -1532 0
-1531 -1533 0
-1531 -1534 0
-1531 -1535 0
-1531 -1536 0
-1531 -1537 0
-1531 -1538 0
-1531 -1539 0
-1531 -1540 0
-1531 -1541 0
-1531 -1542 0
-1531 -1543 0
-1531 -1544 0
-1531 -1545 0
-1531 -1546 0
-1531 -1547 0
-1531 -1548 0
-1531 -1549 0
-1531 -1550 0
-1531 -1551 0
-1531 -1552 0
-1531 -1553 0
-1531 -1554 0
-1531 -1555 0
-1531 -1556 0
-1531 -1557 0
-1531 -1558 0
-1531 -1559 0
-1531 -1560 0
-1531 -1561 0
-1532 -1533 0
-1532 -1534 0
-1532 -1535 0
-1532 -1536 0
-1532 -1537 0
-1532 -1538 0
-1532 -1539 0
-1532 -1540 0
-1532 -1541 0
-1532 -1542 0
-1532 -1543 0
-1532 -1544 0
-1532 -1545 0
-1532 -1546 0
-1532 -1547 0
-1532 -1548 0
-1532 -1549 0
-1532 -1550 0
-1532 -1551 0
-1532 -1552 0
-1532 -1553 0
-1532 -1554 0
-1532 -1555 0
-1532 -1556 0
-1532 -1557 0
-1532 -1558 0
-1532 -1559 0
-1532 -1560 0
-1532 -1561 0
-1533 -1534 0
-1533 -1535 0
-1533 -1536 0
-1533 -1537 0
-1533 -1538 0
-1533 -1539 0
-1533 -1540 0
-1533 -1541 0
-1533 -1542 0
-1533 -1543 0
-1533 -1544 0
-1533 -1545 0
-1533 -1546 0
-1533 -1547 0
-1533 -1548 0
-1533 -1549 0
-1533 -1550 0
-1533 -1551 0
-1533 -1552 0
-1533 -1553 0
-1533 -1554 0
-1533 -1555 0
-1533 -1556 0
-1533 -1557 0
-1533 -1558 0
-1533 -1559 0
-1533 -1560 0
-1533 -1561 0
-1534 -1535 0
-1534 -1536 0
-1534 -1537 0
-1534 -1538 0
-1534 -1539 0
-1534 -1540 0
-1534 -1541 0
-1534 -1542 0
-1534 -1543 0
-1534 -1544 0
-1534 -1545 0
-1534 -1546 0
-1534 -1547 0
-1534 -1548 0
-1534 -1549 0
-1534 -1550 0
-1534 -1551 0
-1534 -1552 0
-1534 -1553 0
-1534 -1554 0
-1534 -1555 0
-1534 -1556 0
-1534 -1557 0
-1534 -1558 0
-1534 -1559 0
-1534 -1560 0
-1534 -1561 0
-1535 -1536 0
-1535 -1537 0
-1535 -1538 0
-1535 -1539 0
-1535 -1540 0
-1535 -1541 0
-1535 -1542 0
-1535 -1543 0
-1535 -1544 0
-1535 -1545 0
-1535 -1546 0
-1535 -1547 0
-1535 -1548 0
-1535 -1549 0
-1535 -1550 0
-1535 -1551 0
-1535 -1552 0
-1535 -1553 0
-1535 -1554 0
-1535 -1555 0
-1535 -1556 0
-1535 -1557 0
-1535 -1558 0
-1535 -1559 0
-1535 -1560 0
-1535 -1561 0
-1536 -1537 0
-1536 -1538 0
-1536 -1539 0
-1536 -1540 0
-1536 -1541 0
-1536 -1542 0
-1536 -1543 0
-1536 -1544 0
-1536 -1545 0
-1536 -1546 0
-1536 -1547 0
-1536 -1548 0
-1536 -1549 0
-1536 -1550 0
-1536 -1551 0
-1536 -1552 0
-1536 -1553 0
-1536 -1554 0
-1536 -1555 0
-1536 -1556 0
-1536 -1557 0
-1536 -1558 0
-1536 -1559 0
-1536 -1560 0
-1536 -1561 0
-1537 -1538 0
-1537 -1539 0
-1537 -1540 0
-1537 -1541 0
-1537 -1542 0
-1537 -1543 0
-1537 -1544 0
-1537 -1545 0
-1537 -1546 0
-1537 -1547 0
-1537 -1548 0
-1537 -1549 0
-1537 -1550 0
-1537 -1551 0
-1537 -1552 0
-1537 -1553 0
-1537 -1554 0
-1537 -1555 0
-1537 -1556 0
-1537 -1557 0
-1537 -1558 0
-1537 -1559 0
-1537 -1560 0
-1537 -1561 0
-1538 -1539 0
-1538 -1540 0
-1538 -1541 0
-1538 -1542 0
-1538 -1543 0
-1538 -1544 0
-1538 -1545 0
-1538 -1546 0
-1538 -1547 0
-1538 -1548 0
-1538 -1549 0
-1538 -1550 0
-1538 -1551 0
-1538 -1552 0
-1538 -1553 0
-1538 -1554 0
-1538 -1555 0
-1538 -1556 0
-1538 -1557 0
-1538 -1558 0
-1538 -1559 0
-1538 -1560 0
-1538 -1561 0
-1539 -1540 0
-1539 -1541 0
-1539 -1542 0
-1539 -1543 0
-1539 -1544 0
-1539 -1545 0
-1539 -1546 0
-1539 -1547 0
-1539 -1548 0
-1539 -1549 0
-1539 -1550 0
-1539 -1551 0
-1539 -1552 0
-1539 -1553 0
-1539 -1554 0
-1539 -1555 0
-1539 -1556 0
-1539 -1557 0
-1539 -1558 0
-1539 -1559 0
-1539 -1560 0
-1539 -1561 0
-1540 -1541 0
-1540 -1542 0
-1540 -1543 0
-1540 -1544 0
-1540 -1545 0
-1540 -1546 0
-1540 -1547 0
-1540 -1548 0
-1540 -1549 0
-1540 -1550 0
-1540 -1551 0
-1540 -1552 0
-1540 -1553 0
-1540 -1554 0
-1540 -1555 0
-1540 -1556 0
-1540 -1557 0
-1540 -1558 0
-1540 -1559 0
-1540 -1560 0
-1540 -1561 0
-1541 -1542 0
-1541 -1543 0
-1541 -1544 0
-1541 -1545 0
-1541 -1546 0
-1541 -1547 0
-1541 -1548 0
-1541 -1549 0
-1541 -1550 0
-1541 -1551 0
-1541 -1552 0
-1541 -1553 0
-1541 -1554 0
-1541 -1555 0
-1541 -1556 0
-1541 -1557 0
-1541 -1558 0
-1541 -1559 0
-1541 -1560 0
-1541 -1561 0
-1542 -1543 0
-1542 -1544 0
-1542 -1545 0
-1542 -1546 0
-1542 -1547 0
-1542 -1548 0
-1542 -1549 0
-1542 -1550 0
-1542 -1551 0
-1542 -1552 0
-1542 -1553 0
-1542 -1554 0
-1542 -1555 0
-1542 -1556 0
-1542 -1557 0
-1542 -1558 0
-1542 -1559 0
-1542 -1560 0
-1542 -1561 0
-1543 -1544 0
-1543 -1545 0
-1543 -1546 0
-1543 -1547 0
-1543 -1548 0
-1543 -1549 0
-1543 -1550 0
-1543 -1551 0
-1543 -1552 0
-1543 -1553 0
-1543 -1554 0
-1543 -1555 0
-1543 -1556 0
-1543 -1557 0
-1543 -1558 0
-1543 -1559 0
-1543 -1560 0
-1543 -1561 0
-1544 -1545 0
-1544 -1546 0
-1544 -1547 0
-1544 -1548 0
-1544 -1549 0
-1544 -1550 0
-1544 -1551 0
-1544 -1552 0
-1544 -1553 0
-1544 -1554 0
-1544 -1555 0
-1544 -1556 0
-1544 -1557 0
-1544 -1558 0
-1544 -1559 0
-1544 -1560 0
-1544 -1561 0
-1545 -1546 0
-1545 -1547 0
-1545 -1548 0
-1545 -1549 0
-1545 -1550 0
-1545 -1551 0
-1545 -1552 0
-1545 -1553 0
-1545 -1554 0
-1545 -1555 0
-1545 -1556 0
-1545 -1557 0
-1545 -1558 0
-1545 -1559 0
-1545 -1560 0
-1545 -1561 0
-1546 -1547 0
-1546 -1548 0
-1546 -1549 0
-1546 -1550 0
-1546 -1551 0
-1546 -1552 0
-1546 -1553 0
-1546 -1554 0
-1546 -1555 0
-1546 -1556 0
-1546 -1557 0
-1546 -1558 0
-1546 -1559 0
-1546 -1560 0
-1546 -1561 0
-1547 -1548 0
-1547 -1549 0
-1547 -1550 0
-1547 -1551 0
-1547 -1552 0
-1547 -1553 0
-1547 -1554 0
-1547 -1555 0
-1547 -1556 0
-1547 -1557 0
-1547 -1558 0
-1547 -1559 0
-1547 -1560 0
-1547 -1561 0
-1548 -1549 0
-1548 -1550 0
-1548 -1551 0
-1548 -1552 0
-1548 -1553 0
-1548 -1554 0
-1548 -1555 0
-1548 -1556 0
-1548 -1557 0
-1548 -1558 0
-1548 -1559 0
-1548 -1560 0
-1548 -1561 0
-1549 -1550 0
-1549 -1551 0
-1549 -1552 0
-1549 -1553 0
-1549 -1554 0
-1549 -1555 0
-1549 -1556 0
-1549 -1557 0
-1549 -1558 0
-1549 -1559 0
-1549 -1560 0
-1549 -1561 0
-1550 -1551 0
-1550 -1552 0
-1550 -1553 0
-1550 -1554 0
-1550 -1555 0
-1550 -1556 0
-1550 -1557 0
-1550 -1558 0
-1550 -1559 0
-1550 -1560 0
-1550 -1561 0
-1551 -1552 0
-1551 -1553 0
-1551 -1554 0
-1551 -1555 0
-1551 -1556 0
-1551 -1557 0
-1551 -1558 0
-1551 -1559 0
-1551 -1560 0
-1551 -1561 0
-1552 -1553 0
-1552 -1554 0
-1552 -1555 0
-1552 -1556 0
-1552 -1557 0
-1552 -1558 0
-1552 -1559 0
-1552 -1560 0
-1552 -1561 0
-1553 -1554 0
-1553 -1555 0
-1553 -1556 0
-1553 -1557 0
-1553 -1558 0
-1553 -1559 0
-1553 -1560 0
-1553 -1561 0
-1554 -1555 0
-1554 -1556 0
-1554 -1557 0
-1554 -1558 0
-1554 -1559 0
-1554 -1560 0
-1554 -1561 0
-1555 -1556 0
-1555 -1557 0
-1555 -1558 0
-1555 -1559 0
-1555 -1560 0
-1555 -1561 0
-1556 -1557 0
-1556 -1558 0
-1556 -1559 0
-1556 -1560 0
-1556 -1561 0
-1557 -1558 0
-1557 -1559 0
-1557 -1560 0
-1557 -1561 0
-1558 -1559 0
-1558 -1560 0
-1558 -1561 0
-1559 -1560 0
-1559 -1561 0
-1560 -1561 0
-1457 36 1510 0
-1457 -36 1509 0
-1458 36 1511 0
-1458 -36 1510 0
-1459 36 1512 0
-1459 -36 1511 0
-1460 36 1513 0
-1460 -36 1512 0
-1461 36 1514 0
-1461 -36 1513 0
-1462 36 1515 0
-1462 -36 1514 0
-1463 36 1516 0
-1463 -36 1515 0
-1464 36 1517 0
-1464 -36 1516 0
-1465 36 1518 0
-1465 -36 1517 0
-1466 36 1519 0
-1466 -36 1518 0
-1467 36 1520 0
-1467 -36 1519 0
-1468 36 1521 0
-1468 -36 1520 0
-1469 36 1522 0
-1469 -36 1521 0
-1470 36 1523 0
-1470 -36 1522 0
-1471 36 1524 0
-1471 -36 1523 0
-1472 36 1525 0
-1472 -36 1524 0
-1473 36 1526 0
-1473 -36 1525 0
-1474 36 1527 0
-1474 -36 1526 0
-1475 36 1528 0
-1475 -36 1527 0
-1476 36 1529 0
-1476 -36 1528 0
-1477 36 1530 0
-1477 -36 1529 0
-1478 36 1531 0
-1478 -36 1530 0
-1479 36 1532 0
-1479 -36 1531 0
-1480 36 1533 0
-1480 -36 1532 0
-1481 36 1534 0
-1481 -36 1533 0
-1482 36 1535 0
-1482 -36 1534 0
-1483 36 1536 0
-1483 -36 1535 0
-1484 36 1537 0
-1484 -36 1536 0
-1485 36 1538 0
-1485 -36 1537 0
-1486 36 1539 0
-1486 -36 1538 0
-1487 36 1540 0
-1487 -36 1539 0
-1488 36 1541 0
-1488 -36 1540 0
-1489 36 1542 0
-1489 -36 1541 0
-1490 36 1543 0
-1490 -36 1542 0
-1491 36 1544 0
-1491 -36 1543 0
-1492 36 1545 0
-1492 -36 1544 0
-1493 36 1546 0
-1493 -36 1545 0
-1494 36 1547 0
-1494 -36 1546 0
-1495 36 1548 0
-1495 -36 1547 0
-1496 36 1549 0
-1496 -36 1548 0
-1497 36 1550 0
-1497 -36 1549 0
-1498 36 1551 0
-1498 -36 1550 0
-1499 36 1552 0
-1499 -36 1551 0
-1500 36 1553 0
-1500 -36 1552 0
-1501 36 1554 0
-1501 -36 1553 0
-1502 36 1555 0
-1502 -36 1554 0
-1503 36 1556 0
-1503 -36 1555 0
-1504 36 1557 0
-1504 -36 1556 0
-1505 36 1558 0
-1505 -36 1557 0
-1506 36 1559 0
-1506 -36 1558 0
-1507 36 1560 0
-1507 -36 1559 0
-1508 36 1561 0
-1508 -36 1560 0
1562 1563 1564 1565 1566 1567 1568 1569 1570 1571 1572 1573 1574 1575 1576 1577 1578 1579 1580 1581 1582 1583 1584 1585 1586 1587 1588 1589 1590 1591 1592 1593 1594 1595 1596 1597 1598 1599 1600 1601 1602 1603 1604 1605 1606 1607 1608 1609 1610 1611 1612 1613 1614 1615 0
-1562 -1563 0
-1562 -1564 0
-1562 -1565 0
-1562 -1566 0
-1562 -1567 0
-1562 -1568 0
-1562 -1569 0
-1562 -1570 0
-1562 -1571 0
-1562 -1572 0
-1562 -1573 0
-1562 -1574 0
-1562 -1575 0
-1562 -1576 0
-1562 -1577 0
-1562 -1578 0
-1562 -1579 0
-1562 -1580 0
-1562 -1581 0
-1562 -1582 0
-1562 -1583 0
-1562 -1584 0
-1562 -1585 0
-1562 -1586 0
-1562 -1587 0
-1562 -1588 0
-1562 -1589 0
-1562 -1590 0
-1562 -1591 0
-1562 -1592 0
-1562 -1593 0
-1562 -1594 0
-1562 -1595 0
-1562 -1596 0
-1562 -1597 0
-1562 -1598 0
-1562 -1599 0
-1562 -1600 0
-1562 -1601 0
-1562 -1602 0
-1562 -1603 0
-1562 -1604 0
-1562 -1605 0
-1562 -1606 0
-1562 -1607 0
-1562 -1608 0
-1562 -1609 0
-1562 -1610 0
-1562 -1611 0
-1562 -1612 0
-1562 -1613 0
-1562 -1614 0
-1562 -1615 0
-1563 -1564 0
-1563 -1565 0
-1563 -1566 0
-1563 -1567 0
-1563 -1568 0
-1563 -1569 0
-1563 -1570 0
-1563 -1571 0
-1563 -1572 0
-1563 -1573 0
-1563 -1574 0
-1563 -1575 0
-1563 -1576 0
-1563 -1577 0
-1563 -1578 0
-1563 -1579 0
-1563 -1580 0
-1563 -1581 0
-1563 -1582 0
-1563 -1583 0
-1563 -1584 0
-1563 -1585 0
-1563 -1586 0
-1563 -1587 0
-1563 -1588 0
-1563 -1589 0
-1563 -1590 0
-1563 -1591 0
-1563 -1592 0
-1563 -1593 0
-1563 -1594 0
-1563 -1595 0
-1563 -1596 0
-1563 -1597 0
-1563 -1598 0
-1563 -1599 0
-1563 -1600 0
-1563 -1601 0
-1563 -1602 0
-1563 -1603 0
-1563 -1604 0
-1563 -1605 0
-1563 -1606 0
-1563 -1607 0
-1563 -1608 0
-1563 -1609 0
-1563 -1610 0
-1563 -1611 0
-1563 -1612 0
-1563 -1613 0
-1563 -1614 0
-1563 -1615 0
-1564 -1565 0
-1564 -1566 0
-1564 -1567 0
-1564 -1568 0
-1564 -1569 0
-1564 -1570 0
-1564 -1571 0
-1564 -1572 0
-1564 -1573 0
-1564 -1574 0
-1564 -1575 0
-1564 -1576 0
-1564 -1577 0
-1564 -1578 0
-1564 -1579 0
-1564 -1580 0
-1564 -1581 0
-1564 -1582 0
-1564 -1583 0
-1564 -1584 0
-1564 -1585 0
-1564 -1586 0
-1564 -1587 0
-1564 -1588 0
-1564 -1589 0
-1564 -1590 0
-1564 -1591 0
-1564 -1592 0
-1564 -1593 0
-1564 -1594 0
-1564 -1595 0
-1564 -1596 0
-1564 -1597 0
-1564 -1598 0
-1564 -1599 0
-1564 -1600 0
-1564 -1601 0
-1564 -1602 0
-1564 -1603 0
-1564 -1604 0
-1564 -1605 0
-1564 -1606 0
-1564 -1607 0
-1564 -1608 0
-1564 -1609 0
-1564 -1610 0
-1564 -1611 0
-1564 -1612 0
-1564 -1613 0
-1564 -1614 0
-1564 -1615 0
-1565 -1566 0
-1565 -1567 0
-1565 -1568 0
-1565 -1569 0
-1565 -1570 0
-1565 -1571 0
-1565 -1572 0
-1565 -1573 0
-1565 -1574 0
-1565 -1575 0
-1565 -1576 0
-1565 -1577 0
-1565 -1578 0
-1565 -1579 0
-1565 -1580 0
-1565 -1581 0
-1565 -1582 0
-1565 -1583 0
-1565 -1584 0
-1565 -1585 0
-1565 -1586 0
-1565 -1587 0
-1565 -1588 0
-1565 -1589 0
-1565 -1590 0
-1565 -1591 0
-1565 -1592 0
-1565 -1593 0
-1565 -1594 0
-1565 -1595 0
-1565 -1596 0
-1565 -1597 0
-1565 -1598 0
-1565 -1599 0
-1565 -1600 0
-1565 -1601 0
-1565 -1602 0
-1565 -1603 0
-1565 -1604 0
-1565 -1605 0
-1565 -1606 0
-1565 -1607 0
-1565 -1608 0
-1565 -1609 0
-1565 -1610 0
-1565 -1611 0
-1565 -1612 0
-1565 -1613 0
-1565 -1614 0
-1565 -1615 0
-1566 -1567 0
-1566 -1568 0
-1566 -1569 0
-1566 -1570 0
-1566 -1571 0
-1566 -1572 0
-1566 -1573 0
-1566 -1574 0
-1566 -1575 0
-1566 -1576 0
-1566 -1577 0
-1566 -1578 0
-1566 -1579 0
-1566 -1580 0
-1566 -1581 0
-1566 -1582 0
-1566 -1583 0
-1566 -1584 0
-1566 -1585 0
-1566 -1586 0
-1566 -1587 0
-1566 -1588 0
-1566 -1589 0
-1566 -1590 0
-1566 -1591 0
-1566 -1592 0
-1566 -1593 0
-1566 -1594 0
-1566 -1595 0
-1566 -1596 0
-1566 -1597 0
-1566 -1598 0
-1566 -1599 0
-1566 -1600 0
-1566 -1601 0
-1566 -1602 0
-1566 -1603 0
-1566 -1604 0
-1566 -1605 0
-1566 -1606 0
-1566 -1607 0
-1566 -1608 0
-1566 -1609 0
-1566 -1610 0
-1566 -1611 0
-1566 -1612 0
-1566 -1613 0
-1566 -1614 0
-1566 -1615 0
-1567 -1568 0
-1567 -1569 0
-1567 -1570 0
-1567 -1571 0
-1567 -1572 0
-1567 -1573 0
-1567 -1574 0
-1567 -1575 0
-1567 -1576 0
-1567 -1577 0
-1567 -1578 0
-1567 -1579 0
-1567 -1580 0
-1567 -1581 0
-1567 -1582 0
-1567 -1583 0
-1567 -1584 0
-1567 -1585 0
-1567 -1586 0
-1567 -1587 0
-1567 -1588 0
-1567 -1589 0
-1567 -1590 0
-1567 -1591 0
-1567 -1592 0
-1567 -1593 0
-1567 -1594 0
-1567 -1595 0
-1567 -1596 0
-1567 -1597 0
-1567 -1598 0
-1567 -1599 0
-1567 -1600 0
-1567 -1601 0
-1567 -1602 0
-1567 -1603 0
-1567 -1604 0
-1567 -1605 0
-1567 -1606 0
-1567 -1607 0
-1567 -1608 0
-1567 -1609 0
-1567 -1610 0
-1567 -1611 0
-1567 -1612 0
-1567 -1613 0
-1567 -1614 0
-1567 -1615 0
-1568 -1569 0
-1568 -1570 0
-1568 -1571 0
-1568 -1572 0
-1568 -1573 0
-1568 -1574 0
-1568 -1575 0
-1568 -1576 0
-1568 -1577 0
-1568 -1578 0
-1568 -1579 0
-1568 -1580 0
-1568 -1581 0
-1568 -1582 0
-1568 -1583 0
-1568 -1584 0
-1568 -1585 0
-1568 -1586 0
-1568 -1587 0
-1568 -1588 0
-1568 -1589 0
-1568 -1590 0
-1568 -1591 0
-1568 -1592 0
-1568 -1593 0
-1568 -1594 0
-1568 -1595 0
-1568 -1596 0
-1568 -1597 0
-1568 -1598 0
-1568 -1599 0
-1568 -1600 0
-1568 -1601 0
-1568 -1602 0
-1568 -1603 0
-1568 -1604 0
-1568 -1605 0
-1568 -1606 0
-1568 -1607 0
-1568 -1608 0
-1568 -1609 0
-1568 -1610 0
-1568 -1611 0
-1568 -1612 0
-1568 -1613 0
-1568 -1614 0
-1568 -1615 0
-1569 -1570 0
-1569 -1571 0
-1569 -1572 0
-1569 -1573 0
-1569 -1574 0
-1569 -1575 0
-1569 -1576 0
-1569 -1577 0
-1569 -1578 0
-1569 -1579 0
-1569 -1580 0
-1569 -1581 0
-1569 -1582 0
-1569 -1583 0
-1569 -1584 0
-1569 -1585 0
-1569 -1586 0
-1569 -1587 0
-1569 -1588 0
-1569 -1589 0
-1569 -1590 0
-1569 -1591 0
-1569 -1592 0
-1569 -1593 0
-1569 -1594 0
-1569 -1595 0
-1569 -1596 0
-1569 -1597 0
-1569 -1598 0
-1569 -1599 0
-1569 -1600 0
-1569 -1601 0
-1569 -1602 0
-1569 -1603 0
-1569 -1604 0
-1569 -1605 0
-1569 -1606 0
-1569 -1607 0
-1569 -1608 0
-1569 -1609 0
-1569 -1610 0
-1569 -1611 0
-1569 -1612 0
-1569 -1613 0
-1569 -1614 0
-1569 -1615 0
-1570 -1571 0
-1570 -1572 0
-1570 -1573 0
-1570 -1574 0
-1570 -1575 0
-1570 -1576 0
-1570 -1577 0
-1570 -1578 0
-1570 -1579 0
-1570 -1580 0
-1570 -1581 0
-1570 -1582 0
-1570 -1583 0
-1570 -1584 0
-1570 -1585 0
-1570 -1586 0
-1570 -1587 0
-1570 -1588 0
-1570 -1589 0
-1570 -1590 0
-1570 -1591 0
-1570 -1592 0
-1570 -1593 0
-1570 -1594 0
-1570 -1595 0
-1570 -1596 0
-1570 -1597 0
-1570 -1598 0
-1570 -1599 0
-1570 -1600 0
-1570 -1601 0
-1570 -1602 0
-1570 -1603 0
-1570 -1604 0
-1570 -1605 0
-1570 -1606 0
-1570 -1607 0
-1570 -1608 0
-1570 -1609 0
-1570 -1610 0
-1570 -1611 0
-1570 -1612 0
-1570 -1613 0
-1570 -1614 0
-1570 -1615 0
-1571 -1572 0
-1571 -1573 0
-1571 -1574 0
-1571 -1575 0
-1571 -1576 0
-1571 -1577 0
-1571 -1578 0
-1571 -1579 0
-1571 -1580 0
-1571 -1581 0
-1571 -1582 0
-1571 -1583 0
-1571 -1584 0
-1571 -1585 0
-1571 -1586 0
-1571 -1587 0
-1571 -1588 0
-1571 -1589 0
-1571 -1590 0
-1571 -1591 0
-1571 -1592 0
-1571 -1593 0
-1571 -1594 0
-1571 -1595 0
-1571 -1596 0
-1571 -1597 0
-1571 -1598 0
-1571 -1599 0
-1571 -1600 0
-1571 -1601 0
-1571 -1602 0
-1571 -1603 0
-1571 -1604 0
-1571 -1605 0
-1571 -1606 0
-1571 -1607 0
-1571 -1608 0
-1571 -1609 0
-1571 -1610 0
-1571 -1611 0
-1571 -1612 0
-1571 -1613 0
-1571 -1614 0
-1571 -1615 0
-1572 -1573 0
-1572 -1574 0
-1572 -1575 0
-1572 -1576 0
-1572 -1577 0
-1572 -1578 0
-1572 -1579 0
-1572 -1580 0
-1572 -1581 0
-1572 -1582 0
-1572 -1583 0
-1572 -1584 0
-1572 -1585 0
-1572 -1586 0
-1572 -1587 0
-1572 -1588 0
-1572 -1589 0
-1572 -1590 0
-1572 -1591 0
-1572 -1592 0
-1572 -1593 0
-1572 -1594 0
-1572 -1595 0
-1572 -1596 0
-1572 -1597 0
-1572 -1598 0
-1572 -1599 0
-1572 -1600 0
-1572 -1601 0
-1572 -1602 0
-1572 -1603 0
-1572 -1604 0
-1572 -1605 0
-1572 -1606 0
-1572 -1607 0
-1572 -1608 0
-1572 -1609 0
-1572 -1610 0
-1572 -1611 0
-1572 -1612 0
-1572 -1613 0
-1572 -1614 0
-1572 -1615 0
-1573 -1574 0
-1573 -1575 0
-1573 -1576 0
-1573 -1577 0
-1573 -1578 0
-1573 -1579 0
-1573 -1580 0
-1573 -1581 0
-1573 -1582 0
-1573 -1583 0
-1573 -1584 0
-1573 -1585 0
-1573 -1586 0
-1573 -1587 0
-1573 -1588 0
-1573 -1589 0
-1573 -1590 0
-1573 -1591 0
-1573 -1592 0
-1573 -1593 0
-1573 -1594 0
-1573 -1595 0
-1573 -1596 0
-1573 -1597 0
-1573 -1598 0
-1573 -1599 0
-1573 -1600 0
-1573 -1601 0
-1573 -1602 0
-1573 -1603 0
-1573 -1604 0
-1573 -1605 0
-1573 -1606 0
-1573 -1607 0
-1573 -1608 0
-1573 -1609 0
-1573 -1610 0
-1573 -1611 0
-1573 -1612 0
-1573 -1613 0
-1573 -1614 0
-1573 -1615 0
-1574 -1575 0
-1574 -1576 0
-1574 -1577 0
-1574 -1578 0
-1574 -1579 0
-1574 -1580 0
-1574 -1581 0
-1574 -1582 0
-1574 -1583 0
-1574 -1584 0
-1574 -1585 0
-1574 -1586 0
-1574 -1587 0
-1574 -1588 0
-1574 -1589 0
-1574 -1590 0
-1574 -1591 0
-1574 -1592 0
-1574 -1593 0
-1574 -1594 0
-1574 -1595 0
-1574 -1596 0
-1574 -1597 0
-1574 -1598 0
-1574 -1599 0
-1574 -1600 0
-1574 -1601 0
-1574 -1602 0
-1574 -1603 0
-1574 -1604 0
-1574 -1605 0
-1574 -1606 0
-1574 -1607 0
-1574 -1608 0
-1574 -1609 0
-1574 -1610 0
-1574 -1611 0
-1574 -1612 0
-1574 -1613 0
-1574 -1614 0
-1574 -1615 0
-1575 -1576 0
-1575 -1577 0
-1575 -1578 0
-1575 -1579 0
-1575 -1580 0
-1575 -1581 0
-1575 -1582 0
-1575 -1583 0
-1575 -1584 0
-1575 -1585 0
-1575 -1586 0
-1575 -1587 0
-1575 -1588 0
-1575 -1589 0
-1575 -1590 0
-1575 -1591 0
-1575 -1592 0
-1575 -1593 0
-1575 -1594 0
-1575 -1595 0
-1575 -1596 0
-1575 -1597 0
-1575 -1598 0
-1575 -1599 0
-1575 -1600 0
-1575 -1601 0
-1575 -1602 0
-1575 -1603 0
-1575 -1604 0
-1575 -1605 0
-1575 -1606 0
-1575 -1607 0
-1575 -1608 0
-1575 -1609 0
-1575 -1610 0
-1575 -1611 0
-1575 -1612 0
-1575 -1613 0
-1575 -1614 0
-1575 -1615 0
-1576 -1577 0
-1576 -1578 0
-1576 -1579 0
-1576 -1580 0
-1576 -1581 0
-1576 -1582 0
-1576 -1583 0
-1576 -1584 0
-1576 -1585 0
-1576 -1586 0
-1576 -1587 0
-1576 -1588 0
-1576 -1589 0
-1576 -1590 0
-1576 -1591 0
-1576 -1592 0
-1576 -1593 0
-1576 -1594 0
-1576 -1595 0
-1576 -1596 0
-1576 -1597 0
-1576 -1598 0
-1576 -1599 0
-1576 -1600 0
-1576 -1601 0
-1576 -1602 0
-1576 -1603 0
-1576 -1604 0
-1576 -1605 0
-1576 -1606 0
-1576 -1607 0
-1576 -1608 0
-1576 -1609 0
-1576 -1610 0
-1576 -1611 0
-1576 -1612 0
-1576 -1613 0
-1576 -1614 0
-1576 -1615 0
-1577 -1578 0
-1577 -1579 0
-1577 -1580 0
-1577 -1581 0
-1577 -1582 0
-1577 -1583 0
-1577 -1584 0
-1577 -1585 0
-1577 -1586 0
-1577 -1587 0
-1577 -1588 0
-1577 -1589 0
-1577 -1590 0
-1577 -1591 0
-1577 -1592 0
-1577 -1593 0
-1577 -1594 0
-1577 -1595 0
-1577 -1596 0
-1577 -1597 0
-1577 -1598 0
-1577 -1599 0
-1577 -1600 0
-1577 -1601 0
-1577 -1602 0
-1577 -1603 0
-1577 -1604 0
-1577 -1605 0
-1577 -1606 0
-1577 -1607 0
-1577 -1608 0
-1577 -1609 0
-1577 -1610 0
-1577 -1611 0
-1577 -1612 0
-1577 -1613 0
-1577 -1614 0
-1577 -1615 0
-1578 -1579 0
-1578 -1580 0
-1578 -1581 0
-1578 -1582 0
-1578 -1583 0
-1578 -1584 0
-1578 -1585 0
-1578 -1586 0
-1578 -1587 0
-1578 -1588 0
-1578 -1589 0
-1578 -1590 0
-1578 -1591 0
-1578 -1592 0
-1578 -1593 0
-1578 -1594 0
-1578 -1595 0
-1578 -1596 0
-1578 -1597 0
-1578 -1598 0
-1578 -1599 0
-1578 -1600 0
-1578 -1601 0
-1578 -1602 0
-1578 -1603 0
-1578 -1604 0
-1578 -1605 0
-1578 -1606 0
-1578 -1607 0
-1578 -1608 0
-1578 -1609 0
-1578 -1610 0
-1578 -1611 0
-1578 -1612 0
-1578 -1613 0
-1578 -1614 0
-1578 -1615 0
-1579 -1580 0
-1579 -1581 0
-1579 -1582 0
-1579 -1583 0
-1579 -1584 0
-1579 -1585 0
-1579 -1586 0
-1579 -1587 0
-1579 -1588 0
-1579 -1589 0
-1579 -1590 0
-1579 -1591 0
-1579 -1592 0
-1579 -1593 0
-1579 -1594 0
-1579 -1595 0
-1579 -1596 0
-1579 -1597 0
-1579 -1598 0
-1579 -1599 0
-1579 -1600 0
-1579 -1601 0
-1579 -1602 0
-1579 -1603 0
-1579 -1604 0
-1579 -1605 0
-1579 -1606 0
-1579 -1607 0
-1579 -1608 0
-1579 -1609 0
-1579 -1610 0
-1579 -1611 0
-1579 -1612 0
-1579 -1613 0
-1579 -1614 0
-1579 -1615 0
-1580 -1581 0
-1580 -1582 0
-1580 -1583 0
-1580 -1584 0
-1580 -1585 0
-1580 -1586 0
-1580 -1587 0
-1580 -1588 0
-1580 -1589 0
-1580 -1590 0
-1580 -1591 0
-1580 -1592 0
-1580 -1593 0
-1580 -1594 0
-1580 -1595 0
-1580 -1596 0
-1580 -1597 0
-1580 -1598 0
-1580 -1599 0
-1580 -1600 0
-1580 -1601 0
-1580 -1602 0
-1580 -1603 0
-1580 -1604 0
-1580 -1605 0
-1580 -1606 0
-1580 -1607 0
-1580 -1608 0
-1580 -1609 0
-1580 -1610 0
-1580 -1611 0
-1580 -1612 0
-1580 -1613 0
-1580 -1614 0
-1580 -1615 0
-1581 -1582 0
-1581 -1583 0
-1581 -1584 0
-1581 -1585 0
-1581 -1586 0
-1581 -1587 0
-1581 -1588 0
-1581 -1589 0
-1581 -1590 0
-1581 -1591 0
-1581 -1592 0
-1581 -1593 0
-1581 -1594 0
-1581 -1595 0
-1581 -1596 0
-1581 -1597 0
-1581 -1598 0
-1581 -1599 0
-1581 -1600 0
-1581 -1601 0
-1581 -1602 0
-1581 -1603 0
-1581 -1604 0
-1581 -1605 0
-1581 -1606 0
-1581 -1607 0
-1581 -1608 0
-1581 -1609 0
-1581 -1610 0
-1581 -1611 0
-1581 -1612 0
-1581 -1613 0
-1581 -1614 0
-1581 -1615 0
-1582 -1583 0
-1582 -1584 0
-1582 -1585 0
-1582 -1586 0
-1582 -1587 0
-1582 -1588 0
-1582 -1589 0
-1582 -1590 0
-1582 -1591 0
-1582 -1592 0
-1582 -1593 0
-1582 -1594 0
-1582 -1595 0
-1582 -1596 0
-1582 -1597 0
-1582 -1598 0
-1582 -1599 0
-1582 -1600 0
-1582 -1601 0
-1582 -1602 0
-1582 -1603 0
-1582 -1604 0
-1582 -1605 0
-1582 -1606 0
-1582 -1607 0
-1582 -1608 0
-1582 -1609 0
-1582 -1610 0
-1582 -1611 0
-1582 -1612 0
-1582 -1613 0
-1582 -1614 0
-1582 -1615 0
-1583 -1584 0
-1583 -1585 0
-1583 -1586 0
-1583 -1587 0
-1583 -1588 0
-1583 -1589 0
-1583 -1590 0
-1583 -1591 0
-1583 -1592 0
-1583 -1593 0
-1583 -1594 0
-1583 -1595 0
-1583 -1596 0
-1583 -1597 0
-1583 -1598 0
-1583 -1599 0
-1583 -1600 0
-1583 -1601 0
-1583 -1602 0
-1583 -1603 0
-1583 -1604 0
-1583 -1605 0
-1583 -1606 0
-1583 -1607 0
-1583 -1608 0
-1583 -1609 0
-1583 -1610 0
-1583 -1611 0
-1583 -1612 0
-1583 -1613 0
-1583 -1614 0
-1583 -1615 0
-1584 -1585 0
-1584 -1586 0
-1584 -1587 0
-1584 -1588 0
-1584 -1589 0
-1584 -1590 0
-1584 -1591 0
-1584 -1592 0
-1584 -1593 0
-1584 -1594 0
-1584 -1595 0
-1584 -1596 0
-1584 -1597 0
-1584 -1598 0
-1584 -1599 0
-1584 -1600 0
-1584 -1601 0
-1584 -1602 0
-1584 -1603 0
-1584 -1604 0
-1584 -1605 0
-1584 -1606 0
-1584 -1607 0
-1584 -1608 0
-1584 -1609 0
-1584 -1610 0
-1584 -1611 0
-1584 -1612 0
-1584 -1613 0
-1584 -1614 0
-1584 -1615 0
-1585 -1586 0
-1585 -1587 0
-1585 -1588 0
-1585 -1589 0
-1585 -1590 0
-1585 -1591 0
-1585 -1592 0
-1585 -1593 0
-1585 -1594 0
-1585 -1595 0
-1585 -1596 0
-1585 -1597 0
-1585 -1598 0
-1585 -1599 0
-1585 -1600 0
-1585 -1601 0
-1585 -1602 0
-1585 -1603 0
-1585 -1604 0
-1585 -1605 0
-1585 -1606 0
-1585 -1607 0
-1585 -1608 0
-1585 -1609 0
-1585 -1610 0
-1585 -1611 0
-1585 -1612 0
-1585 -1613 0
-1585 -1614 0
-1585 -1615 0
-1586 -1587 0
-1586 -1588 0
-1586 -1589 0
-1586 -1590 0
-1586 -1591 0
-1586 -1592 0
-1586 -1593 0
-1586 -1594 0
-1586 -1595 0
-1586 -1596 0
-1586 -1597 0
-1586 -1598 0
-1586 -1599 0
-1586 -1600 0
-1586 -1601 0
-1586 -1602 0
-1586 -1603 0
-1586 -1604 0
-1586 -1605 0
-1586 -1606 0
-1586 -1607 0
-1586 -1608 0
-1586 -1609 0
-1586 -1610 0
-1586 -1611 0
-1586 -1612 0
-1586 -1613 0
-1586 -1614 0
-1586 -1615 0
-1587 -1588 0
-1587 -1589 0
-1587 -1590 0
-1587 -1591 0
-1587 -1592 0
-1587 -1593 0
-1587 -1594 0
-1587 -1595 0
-1587 -1596 0
-1587 -1597 0
-1587 -1598 0
-1587 -1599 0
-1587 -1600 0
-1587 -1601 0
-1587 -1602 0
-1587 -1603 0
-1587 -1604 0
-1587 -1605 0
-1587 -1606 0
-1587 -1607 0
-1587 -1608 0
-1587 -1609 0
-1587 -1610 0
-1587 -1611 0
-1587 -1612 0
-1587 -1613 0
-1587 -1614 0
-1587 -1615 0
-1588 -1589 0
-1588 -1590 0
-1588 -1591 0
-1588 -1592 0
-1588 -1593 0
-1588 -1594 0
-1588 -1595 0
-1588 -1596 0
-1588 -1597 0
-1588 -1598 0
-1588 -1599 0
-1588 -1600 0
-1588 -1601 0
-1588 -1602 0
-1588 -1603 0
-1588 -1604 0
-1588 -1605 0
-1588 -1606 0
-1588 -1607 0
-1588 -1608 0
-1588 -1609 0
-1588 -1610 0
-1588 -1611 0
-1588 -1612 0
-1588 -1613 0
-1588 -1614 0
-1588 -1615 0
-1589 -1590 0
-1589 -1591 0
-1589 -1592 0
-1589 -1593 0
-1589 -1594 0
-1589 -1595 0
-1589 -1596 0
-1589 -1597 0
-1589 -1598 0
-1589 -1599 0
-1589 -1600 0
-1589 -1601 0
-1589 -1602 0
-1589 -1603 0
-1589 -1604 0
-1589 -1605 0
-1589 -1606 0
-1589 -1607 0
-1589 -1608 0
-1589 -1609 0
-1589 -1610 0
-1589 -1611 0
-1589 -1612 0
-1589 -1613 0
-1589 -1614 0
-1589 -1615 0
-1590 -1591 0
-1590 -1592 0
-1590 -1593 0
-1590 -1594 0
-1590 -1595 0
-1590 -1596 0
-1590 -1597 0
-1590 -1598 0
-1590 -1599 0
-1590 -1600 0
-1590 -1601 0
-1590 -1602 0
-1590 -1603 0
-1590 -1604 0
-1590 -1605 0
-1590 -1606 0
-1590 -1607 0
-1590 -1608 0
-1590 -1609 0
-1590 -1610 0
-1590 -1611 0
-1590 -1612 0
-1590 -1613 0
-1590 -1614 0
-1590 -1615 0
-1591 -1592 0
-1591 -1593 0
-1591 -1594 0
-1591 -1595 0
-1591 -1596 0
-1591 -1597 0
-1591 -1598 0
-1591 -1599 0
-1591 -1600 0
-1591 -1601 0
-1591 -1602 0
-1591 -1603 0
-1591 -1604 0
-1591 -1605 0
-1591 -1606 0
-1591 -1607 0
-1591 -1608 0
-1591 -1609 0
-1591 -1610 0
-1591 -1611 0
-1591 -1612 0
-1591 -1613 0
-1591 -1614 0
-1591 -1615 0
-1592 -1593 0
-1592 -1594 0
-1592 -1595 0
-1592 -1596 0
-1592 -1597 0
-1592 -1598 0
-1592 -1599 0
-1592 -1600 0
-1592 -1601 0
-1592 -1602 0
-1592 -1603 0
-1592 -1604 0
-1592 -1605 0
-1592 -1606 0
-1592 -1607 0
-1592 -1608 0
-1592 -1609 0
-1592 -1610 0
-1592 -1611 0
-1592 -1612 0
-1592 -1613 0
-1592 -1614 0
-1592 -1615 0
-1593 -1594 0
-1593 -1595 0
-1593 -1596 0
-1593 -1597 0
-1593 -1598 0
-1593 -1599 0
-1593 -1600 0
-1593 -1601 0
-1593 -1602 0
-1593 -1603 0
-1593 -1604 0
-1593 -1605 0
-1593 -1606 0
-1593 -1607 0
-1593 -1608 0
-1593 -1609 0
-1593 -1610 0
-1593 -1611 0
-1593 -1612 0
-1593 -1613 0
-1593 -1614 0
-1593 -1615 0
-1594 -1595 0
-1594 -1596 0
-1594 -1597 0
-1594 -1598 0
-1594 -1599 0
-1594 -1600 0
-1594 -1601 0
-1594 -1602 0
-1594 -1603 0
-1594 -1604 0
-1594 -1605 0
-1594 -1606 0
-1594 -1607 0
-1594 -1608 0
-1594 -1609 0
-1594 -1610 0
-1594 -1611 0
-1594 -1612 0
-1594 -1613 0
-1594 -1614 0
-1594 -1615 0
-1595 -1596 0
-1595 -1597 0
-1595 -1598 0
-1595 -1599 0
-1595 -1600 0
-1595 -1601 0
-1595 -1602 0
-1595 -1603 0
-1595 -1604 0
-1595 -1605 0
-1595 -1606 0
-1595 -1607 0
-1595 -1608 0
-1595 -1609 0
-1595 -1610 0
-1595 -1611 0
-1595 -1612 0
-1595 -1613 0
-1595 -1614 0
-1595 -1615 0
-1596 -1597 0
-1596 -1598 0
-1596 -1599 0
-1596 -1600 0
-1596 -1601 0
-1596 -1602 0
-1596 -1603 0
-1596 -1604 0
-1596 -1605 0
-1596 -1606 0
-1596 -1607 0
-1596 -1608 0
-1596 -1609 0
-1596 -1610 0
-1596 -1611 0
-1596 -1612 0
-1596 -1613 0
-1596 -1614 0
-1596 -1615 0
-1597 -1598 0
-1597 -1599 0
-1597 -1600 0
-1597 -1601 0
-1597 -1602 0
-1597 -1603 0
-1597 -1604 0
-1597 -1605 0
-1597 -1606 0
-1597 -1607 0
-1597 -1608 0
-1597 -1609 0
-1597 -1610 0
-1597 -1611 0
-1597 -1612 0
-1597 -1613 0
-1597 -1614 0
-1597 -1615 0
-1598 -1599 0
-1598 -1600 0
-1598 -1601 0
-1598 -1602 0
-1598 -1603 0
-1598 -1604 0
-1598 -1605 0
-1598 -1606 0
-1598 -1607 0
-1598 -1608 0
-1598 -1609 0
-1598 -1610 0
-1598 -1611 0
-1598 -1612 0
-1598 -1613 0
-1598 -1614 0
-1598 -1615 0
-1599 -1600 0
-1599 -1601 0
-1599 -1602 0
-1599 -1603 0
-1599 -1604 0
-1599 -1605 0
-1599 -1606 0
-1599 -1607 0
-1599 -1608 0
-1599 -1609 0
-1599 -1610 0
-1599 -1611 0
-1599 -1612 0
-1599 -1613 0
-1599 -1614 0
-1599 -1615 0
-1600 -1601 0
-1600 -1602 0
-1600 -1603 0
-1600 -1604 0
-1600 -1605 0
-1600 -1606 0
-1600 -1607 0
-1600 -1608 0
-1600 -1609 0
-1600 -1610 0
-1600 -1611 0
-1600 -1612 0
-1600 -1613 0
-1600 -1614 0
-1600 -1615 0
-1601 -1602 0
-1601 -1603 0
-1601 -1604 0
-1601 -1605 0
-1601 -1606 0
-1601 -1607 0
-1601 -1608 0
-1601 -1609 0
-1601 -1610 0
-1601 -1611 0
-1601 -1612 0
-1601 -1613 0
-1601 -1614 0
-1601 -1615 0
-1602 -1603 0
-1602 -1604 0
-1602 -1605 0
-1602 -1606 0
-1602 -1607 0
-1602 -1608 0
-1602 -1609 0
-1602 -1610 0
-1602 -1611 0
-1602 -1612 0
-1602 -1613 0
-1602 -1614 0
-1602 -1615 0
-1603 -1604 0
-1603 -1605 0
-1603 -1606 0
-1603 -1607 0
-1603 -1608 0
-1603 -1609 0
-1603 -1610 0
-1603 -1611 0
-1603 -1612 0
-1603 -1613 0
-1603 -1614 0
-1603 -1615 0
-1604 -1605 0
-1604 -1606 0
-1604 -1607 0
-1604 -1608 0
-1604 -1609 0
-1604 -1610 0
-1604 -1611 0
-1604 -1612 0
-1604 -1613 0
-1604 -1614 0
-1604 -1615 0
-1605 -1606 0
-1605 -1607 0
-1605 -1608 0
-1605 -1609 0
-1605 -1610 0
-1605 -1611 0
-1605 -1612 0
-1605 -1613 0
-1605 -1614 0
-1605 -1615 0
-1606 -1607 0
-1606 -1608 0
-1606 -1609 0
-1606 -1610 0
-1606 -1611 0
-1606 -1612 0
-1606 -1613 0
-1606 -1614 0
-1606 -1615 0
-1607 -1608 0
-1607 -1609 0
-1607 -1610 0
-1607 -1611 0
-1607 -1612 0
-1607 -1613 0
-1607 -1614 0
-1607 -1615 0
-1608 -1609 0
-1608 -1610 0
-1608 -1611 0
-1608 -1612 0
-1608 -1613 0
-1608 -1614 0
-1608 -1615 0
-1609 -1610 0
-1609 -1611 0
-1609 -1612 0
-1609 -1613 0
-1609 -1614 0
-1609 -1615 0
-1610 -1611 0
-1610 -1612 0
-1610 -1613 0
-1610 -1614 0
-1610 -1615 0
-1611 -1612 0
-1611 -1613 0
-1611 -1614 0
-1611 -1615 0
-1612 -1613 0
-1612 -1614 0
-1612 -1615 0
-1613 -1614 0
-1613 -1615 0
-1614 -1615 0
-1509 39 1563 0
-1509 -39 1562 0
-1510 39 1564 0
-1510 -39 1563 0
-1511 39 1565 0
-1511 -39 1564 0
-1512 39 1566 0
-1512 -39 1565 0
-1513 39 1567 0
-1513 -39 1566 0
-1514 39 1568 0
-1514 -39 1567 0
-1515 39 1569 0
-1515 -39 1568 0
-1516 39 1570 0
-1516 -39 1569 0
-1517 39 1571 0
-1517 -39 1570 0
-1518 39 1572 0
-1518 -39 1571 0
-1519 39 1573 0
-1519 -39 1572 0
-1520 39 1574 0
-1520 -39 1573 0
-1521 39 1575 0
-1521 -39 1574 0
-1522 39 1576 0
-1522 -39 1575 0
-1523 39 1577 0
-1523 -39 1576 0
-1524 39 1578 0
-1524 -39 1577 0
-1525 39 1579 0
-1525 -39 1578 0
-1526 39 1580 0
-1526 -39 1579 0
-1527 39 1581 0
-1527 -39 1580 0
-1528 39 1582 0
-1528 -39 1581 0
-1529 39 1583 0
-1529 -39 1582 0
-1530 39 1584 0
-1530 -39 1583 0
-1531 39 1585 0
-1531 -39 1584 0
-1532 39 1586 0
-1532 -39 1585 0
-1533 39 1587 0
-1533 -39 1586 0
-1534 39 1588 0
-1534 -39 1587 0
-1535 39 1589 0
-1535 -39 1588 0
-1536 39 1590 0
-1536 -39 1589 0
-1537 39 1591 0
-1537 -39 1590 0
-1538 39 1592 0
-1538 -39 1591 0
-1539 39 1593 0
-1539 -39 1592 0
-1540 39 1594 0
-1540 -39 1593 0
-1541 39 1595 0
-1541 -39 1594 0
-1542 39 1596 0
-1542 -39 1595 0
-1543 39 1597 0
-1543 -39 1596 0
-1544 39 1598 0
-1544 -39 1597 0
-1545 39 1599 0
-1545 -39 1598 0
-1546 39 1600 0
-1546 -39 1599 0
-1547 39 1601 0
-1547 -39 1600 0
-1548 39 1602 0
-1548 -39 1601 0
-1549 39 1603 0
-1549 -39 1602 0
-1550 39 1604 0
-1550 -39 1603 0
-1551 39 1605 0
-1551 -39 1604 0
-1552 39 1606 0
-1552 -39 1605 0
-1553 39 1607 0
-1553 -39 1606 0
-1554 39 1608 0
-1554 -39 1607 0
-1555 39 1609 0
-1555 -39 1608 0
-1556 39 1610 0
-1556 -39 1609 0
-1557 39 1611 0
-1557 -39 1610 0
-1558 39 1612 0
-1558 -39 1611 0
-1559 39 1613 0
-1559 -39 1612 0
-1560 39 1614 0
-1560 -39 1613 0
-1561 39 1615 0
-1561 -39 1614 0
1616 1617 1618 1619 1620 1621 1622 1623 1624 1625 1626 1627 1628 1629 1630 1631 1632 1633 1634 1635 1636 1637 1638 1639 1640 1641 1642 1643 1644 1645 1646 1647 1648 1649 1650 1651 1652 1653 1654 1655 1656 1657 1658 1659 1660 1661 1662 1663 1664 1665 1666 1667 1668 1669 1670 0
-1616 -1617 0
-1616 -1618 0
-1616 -1619 0
-1616 -1620 0
-1616 -1621 0
-1616 -1622 0
-1616 -1623 0
-1616 -1624 0
-1616 -1625 0
-1616 -1626 0
-1616 -1627 0
-1616 -1628 0
-1616 -1629 0
-1616 -1630 0
-1616 -1631 0
-1616 -1632 0
-1616 -1633 0
-1616 -1634 0
-1616 -1635 0
-1616 -1636 0
-1616 -1637 0
-1616 -1638 0
-1616 -1639 0
-1616 -1640 0
-1616 -1641 0
-1616 -1642 0
-1616 -1643 0
-1616 -1644 0
-1616 -1645 0
-1616 -1646 0
-1616 -1647 0
-1616 -1648 0
-1616 -1649 0
-1616 -1650 0
-1616 -1651 0
-1616 -1652 0
-1616 -1653 0
-1616 -1654 0
-1616 -1655 0
-1616 -1656 0
-1616 -1657 0
-1616 -1658 0
-1616 -1659 0
-1616 -1660 0
-1616 -1661 0
-1616 -1662 0
-1616 -1663 0
-1616 -1664 0
-1616 -1665 0
-1616 -1666 0
-1616 -1667 0
-1616 -1668 0
-1616 -1669 0
-1616 -1670 0
-1617 -1618 0
-1617 -1619 0
-1617 -1620 0
-1617 -1621 0
-1617 -1622 0
-1617 -1623 0
-1617 -1624 0
-1617 -1625 0
-1617 -1626 0
-1617 -1627 0
-1617 -1628 0
-1617 -1629 0
-1617 -1630 0
-1617 -1631 0
-1617 -1632 0
-1617 -1633 0
-1617 -1634 0
-1617 -1635 0
-1617 -1636 0
-1617 -1637 0
-1617 -1638 0
-1617 -1639 0
-1617 -1640 0
-1617 -1641 0
-1617 -1642 0
-1617 -1643 0
-1617 -1644 0
-1617 -1645 0
-1617 -1646 0
-1617 -1647 0
-1617 -1648 0
-1617 -1649 0
-1617 -1650 0
-1617 -1651 0
-1617 -1652 0
-1617 -1653 0
-1617 -1654 0
-1617 -1655 0
-1617 -1656 0
-1617 -1657 0
-1617 -1658 0
-1617 -1659 0
-1617 -1660 0
-1617 -1661 0
-1617 -1662 0
-1617 -1663 0
-1617 -1664 0
-1617 -1665 0
-1617 -1666 0
-1617 -1667 0
-1617 -1668 0
-1617 -1669 0
-1617 -1670 0
-1618 -1619 0
-1618 -1620 0
-1618 -1621 0
-1618 -1622 0
-1618 -1623 0
-1618 -1624 0
-1618 -1625 0
-1618 -1626 0
-1618 -1627 0
-1618 -1628 0
-1618 -1629 0
-1618 -1630 0
-1618 -1631 0
-1618 -1632 0
-1618 -1633 0
-1618 -1634 0
-1618 -1635 0
-1618 -1636 0
-1618 -1637 0
-1618 -1638 0
-1618 -1639 0
-1618 -1640 0
-1618 -1641 0
-1618 -1642 0
-1618 -1643 0
-1618 -1644 0
-1618 -1645 0
-1618 -1646 0
-1618 -1647 0
-1618 -1648 0
-1618 -1649 0
-1618 -1650 0
-1618 -1651 0
-1618 -1652 0
-1618 -1653 0
-1618 -1654 0
-1618 -1655 0
-1618 -1656 0
-1618 -1657 0
-1618 -1658 0
-1618 -1659 0
-1618 -1660 0
-1618 -1661 0
-1618 -1662 0
-1618 -1663 0
-1618 -1664 0
-1618 -1665 0
-1618 -1666 0
-1618 -1667 0
-1618 -1668 0
-1618 -1669 0
-1618 -1670 0
-1619 -1620 0
-1619 -1621 0
-1619 -1622 0
-1619 -1623 0
-1619 -1624 0
-1619 -1625 0
-1619 -1626 0
-1619 -1627 0
-1619 -1628 0
-1619 -1629 0
-1619 -1630 0
-1619 -1631 0
-1619 -1632 0
-1619 -1633 0
-1619 -1634 0
-1619 -1635 0
-1619 -1636 0
-1619 -1637 0
-1619 -1638 0
-1619 -1639 0
-1619 -1640 0
-1619 -1641 0
-1619 -1642 0
-1619 -1643 0
-1619 -1644 0
-1619 -1645 0
-1619 -1646 0
-1619 -1647 0
-1619 -1648 0
-1619 -1649 0
-1619 -1650 0
-1619 -1651 0
-1619 -1652 0
-1619 -1653 0
-1619 -1654 0
-1619 -1655 0
-1619 -1656 0
-1619 -1657 0
-1619 -1658 0
-1619 -1659 0
-1619 -1660 0
-1619 -1661 0
-1619 -1662 0
-1619 -1663 0
-1619 -1664 0
-1619 -1665 0
-1619 -1666 0
-1619 -1667 0
-1619 -1668 0
-1619 -1669 0
-1619 -1670 0
-1620 -1621 0
-1620 -1622 0
-1620 -1623 0
-1620 -1624 0
-1620 -1625 0
-1620 -1626 0
-1620 -1627 0
-1620 -1628 0
-1620 -1629 0
-1620 -1630 0
-1620 -1631 0
-1620 -1632 0
-1620 -1633 0
-1620 -1634 0
-1620 -1635 0
-1620 -1636 0
-1620 -1637 0
-1620 -1638 0
-1620 -1639 0
-1620 -1640 0
-1620 -1641 0
-1620 -1642 0
-1620 -1643 0
-1620 -1644 0
-1620 -1645 0
-1620 -1646 0
-1620 -1647 0
-1620 -1648 0
-1620 -1649 0
-1620 -1650 0
-1620 -1651 0
-1620 -1652 0
-1620 -1653 0
-1620 -1654 0
-1620 -1655 0
-1620 -1656 0
-1620 -1657 0
-1620 -1658 0
-1620 -1659 0
-1620 -1660 0
-1620 -1661 0
-1620 -1662 0
-1620 -1663 0
-1620 -1664 0
-1620 -1665 0
-1620 -1666 0
-1620 -1667 0
-1620 -1668 0
-1620 -1669 0
-1620 -1670 0
-1621 -1622 0
-1621 -1623 0
-1621 -1624 0
-1621 -1625 0
-1621 -1626 0
-1621 -1627 0
-1621 -1628 0
-1621 -1629 0
-1621 -1630 0
-1621 -1631 0
-1621 -1632 0
-1621 -1633 0
-1621 -1634 0
-1621 -1635 0
-1621 -1636 0
-1621 -1637 0
-1621 -1638 0
-1621 -1639 0
-1621 -1640 0
-1621 -1641 0
-1621 -1642 0
-1621 -1643 0
-1621 -1644 0
-1621 -1645 0
-1621 -1646 0
-1621 -1647 0
-1621 -1648 0
-1621 -1649 0
-1621 -1650 0
-1621 -1651 0
-1621 -1652 0
-1621 -1653 0
-1621 -1654 0
-1621 -1655 0
-1621 -1656 0
-1621 -1657 0
-1621 -1658 0
-1621 -1659 0
-1621 -1660 0
-1621 -1661 0
-1621 -1662 0
-1621 -1663 0
-1621 -1664 0
-1621 -1665 0
-1621 -1666 0
-1621 -1667 0
-1621 -1668 0
-1621 -1669 0
-1621 -1670 0
-1622 -1623 0
-1622 -1624 0
-1622 -1625 0
-1622 -1626 0
-1622 -1627 0
-1622 -1628 0
-1622 -1629 0
-1622 -1630 0
-1622 -1631 0
-1622 -1632 0
-1622 -1633 0
-1622 -1634 0
-1622 -1635 0
-1622 -1636 0
-1622 -1637 0
-1622 -1638 0
-1622 -1639 0
-1622 -1640 0
-1622 -1641 0
-1622 -1642 0
-1622 -1643 0
-1622 -1644 0
-1622 -1645 0
-1622 -1646 0
-1622 -1647 0
-1622 -1648 0
-1622 -1649 0
-1622 -1650 0
-1622 -1651 0
-1622 -1652 0
-1622 -1653 0
-1622 -1654 0
-1622 -1655 0
-1622 -1656 0
-1622 -1657 0
-1622 -1658 0
-1622 -1659 0
-1622 -1660 0
-1622 -1661 0
-1622 -1662 0
-1622 -1663 0
-1622 -1664 0
-1622 -1665 0
-1622 -1666 0
-1622 -1667 0
-1622 -1668 0
-1622 -1669 0
-1622 -1670 0
-1623 -1624 0
-1623 -1625 0
-1623 -1626 0
-1623 -1627 0
-1623 -1628 0
-1623 -1629 0
-1623 -1630 0
-1623 -1631 0
-1623 -1632 0
-1623 -1633 0
-1623 -1634 0
-1623 -1635 0
-1623 -1636 0
-1623 -1637 0
-1623 -1638 0
-1623 -1639 0
-1623 -1640 0
-1623 -1641 0
-1623 -1642 0
-1623 -1643 0
-1623 -1644 0
-1623 -1645 0
-1623 -1646 0
-1623 -1647 0
-1623 -1648 0
-1623 -1649 0
-1623 -1650 0
-1623 -1651 0
-1623 -1652 0
-1623 -1653 0
-1623 -1654 0
-1623 -1655 0
-1623 -1656 0
-1623 -1657 0
-1623 -1658 0
-1623 -1659 0
-1623 -1660 0
-1623 -1661 0
-1623 -1662 0
-1623 -1663 0
-1623 -1664 0
-1623 -1665 0
-1623 -1666 0
-1623 -1667 0
-1623 -1668 0
-1623 -1669 0
-1623 -1670 0
-1624 -1625 0
-1624 -1626 0
-1624 -1627 0
-1624 -1628 0
-1624 -1629 0
-1624 -1630 0
-1624 -1631 0
-1624 -1632 0
-1624 -1633 0
-1624 -1634 0
-1624 -1635 0
-1624 -1636 0
-1624 -1637 0
-1624 -1638 0
-1624 -1639 0
-1624 -1640 0
-1624 -1641 0
-1624 -1642 0
-1624 -1643 0
-1624 -1644 0
-1624 -1645 0
-1624 -1646 0
-1624 -1647 0
-1624 -1648 0
-1624 -1649 0
-1624 -1650 0
-1624 -1651 0
-1624 -1652 0
-1624 -1653 0
-1624 -1654 0
-1624 -1655 0
-1624 -1656 0
-1624 -1657 0
-1624 -1658 0
-1624 -1659 0
-1624 -1660 0
-1624 -1661 0
-1624 -1662 0
-1624 -1663 0
-1624 -1664 0
-1624 -1665 0
-1624 -1666 0
-1624 -1667 0
-1624 -1668 0
-1624 -1669 0
-1624 -1670 0
-1625 -1626 0
-1625 -1627 0
-1625 -1628 0
-1625 -1629 0
-1625 -1630 0
-1625 -1631 0
-1625 -1632 0
-1625 -1633 0
-1625 -1634 0
-1625 -1635 0
-1625 -1636 0
-1625 -1637 0
-1625 -1638 0
-1625 -1639 0
-1625 -1640 0
-1625 -1641 0
-1625 -1642 0
-1625 -1643 0
-1625 -1644 0
-1625 -1645 0
-1625 -1646 0
-1625 -1647 0
-1625 -1648 0
-1625 -1649 0
-1625 -1650 0
-1625 -1651 0
-1625 -1652 0
-1625 -1653 0
-1625 -1654 0
-1625 -1655 0
-1625 -1656 0
-1625 -1657 0
-1625 -1658 0
-1625 -1659 0
-1625 -1660 0
-1625 -1661 0
-1625 -1662 0
-1625 -1663 0
-1625 -1664 0
-1625 -1665 0
-1625 -1666 0
-1625 -1667 0
-1625 -1668 0
-1625 -1669 0
-1625 -1670 0
-1626 -1627 0
-1626 -1628 0
-1626 -1629 0
-1626 -1630 0
-1626 -1631 0
-1626 -1632 0
-1626 -1633 0
-1626 -1634 0
-1626 -1635 0
-1626 -1636 0
-1626 -1637 0
-1626 -1638 0
-1626 -1639 0
-1626 -1640 0
-1626 -1641 0
-1626 -1642 0
-1626 -1643 0
-1626 -1644 0
-1626 -1645 0
-1626 -1646 0
-1626 -1647 0
-1626 -1648 0
-1626 -1649 0
-1626 -1650 0
-1626 -1651 0
-1626 -1652 0
-1626 -1653 0
-1626 -1654 0
-1626 -1655 0
-1626 -1656 0
-1626 -1657 0
-1626 -1658 0
-1626 -1659 0
-1626 -1660 0
-1626 -1661 0
-1626 -1662 0
-1626 -1663 0
-1626 -1664 0
-1626 -1665 0
-1626 -1666 0
-1626 -1667 0
-1626 -1668 0
-1626 -1669 0
-1626 -1670 0
-1627 -1628 0
-1627 -1629 0
-1627 -1630 0
-1627 -1631 0
-1627 -1632 0
-1627 -1633 0
-1627 -1634 0
-1627 -1635 0
-1627 -1636 0
-1627 -1637 0
-1627 -1638 0
-1627 -1639 0
-1627 -1640 0
-1627 -1641 0
-1627 -1642 0
-1627 -1643 0
-1627 -1644 0
-1627 -1645 0
-1627 -1646 0
-1627 -1647 0
-1627 -1648 0
-1627 -1649 0
-1627 -1650 0
-1627 -1651 0
-1627 -1652 0
-1627 -1653 0
-1627 -1654 0
-1627 -1655 0
-1627 -1656 0
-1627 -1657 0
-1627 -1658 0
-1627 -1659 0
-1627 -1660 0
-1627 -1661 0
-1627 -1662 0
-1627 -1663 0
-1627 -1664 0
-1627 -1665 0
-1627 -1666 0
-1627 -1667 0
-1627 -1668 0
-1627 -1669 0
-1627 -1670 0
-1628 -1629 0
-1628 -1630 0
-1628 -1631 0
-1628 -1632 0
-1628 -1633 0
-1628 -1634 0
-1628 -1635 0
-1628 -1636 0
-1628 -1637 0
-1628 -1638 0
-1628 -1639 0
-1628 -1640 0
-1628 -1641 0
-1628 -1642 0
-1628 -1643 0
-1628 -1644 0
-1628 -1645 0
-1628 -1646 0
-1628 -1647 0
-1628 -1648 0
-1628 -1649 0
-1628 -1650 0
-1628 -1651 0
-1628 -1652 0
-1628 -1653 0
-1628 -1654 0
-1628 -1655 0
-1628 -1656 0
-1628 -1657 0
-1628 -1658 0
-1628 -1659 0
-1628 -1660 0
-1628 -1661 0
-1628 -1662 0
-1628 -1663 0
-1628 -1664 0
-1628 -1665 0
-1628 -1666 0
-1628 -1667 0
-1628 -1668 0
-1628 -1669 0
-1628 -1670 0
-1629 -1630 0
-1629 -1631 0
-1629 -1632 0
-1629 -1633 0
-1629 -1634 0
-1629 -1635 0
-1629 -1636 0
-1629 -1637 0
-1629 -1638 0
-1629 -1639 0
-1629 -1640 0
-1629 -1641 0
-1629 -1642 0
-1629 -1643 0
-1629 -1644 0
-1629 -1645 0
-1629 -1646 0
-1629 -1647 0
-1629 -1648 0
-1629 -1649 0
-1629 -1650 0
-1629 -1651 0
-1629 -1652 0
-1629 -1653 0
-1629 -1654 0
-1629 -1655 0
-1629 -1656 0
-1629 -1657 0
-1629 -1658 0
-1629 -1659 0
-1629 -1660 0
-1629 -1661 0
-1629 -1662 0
-1629 -1663 0
-1629 -1664 0
-1629 -1665 0
-1629 -1666 0
-1629 -1667 0
-1629 -1668 0
-1629 -1669 0
-1629 -1670 0
-1630 -1631 0
-1630 -1632 0
-1630 -1633 0
-1630 -1634 0
-1630 -1635 0
-1630 -1636 0
-1630 -1637 0
-1630 -1638 0
-1630 -1639 0
-1630 -1640 0
-1630 -1641 0
-1630 -1642 0
-1630 -1643 0
-1630 -1644 0
-1630 -1645 0
-1630 -1646 0
-1630 -1647 0
-1630 -1648 0
-1630 -1649 0
-1630 -1650 0
-1630 -1651 0
-1630 -1652 0
-1630 -1653 0
-1630 -1654 0
-1630 -1655 0
-1630 -1656 0
-1630 -1657 0
-1630 -1658 0
-1630 -1659 0
-1630 -1660 0
-1630 -1661 0
-1630 -1662 0
-1630 -1663 0
-1630 -1664 0
-1630 -1665 0
-1630 -1666 0
-1630 -1667 0
-1630 -1668 0
-1630 -1669 0
-1630 -1670 0
-1631 -1632 0
-1631 -1633 0
-1631 -1634 0
-1631 -1635 0
-1631 -1636 0
-1631 -1637 0
-1631 -1638 0
-1631 -1639 0
-1631 -1640 0
-1631 -1641 0
-1631 -1642 0
-1631 -1643 0
-1631 -1644 0
-1631 -1645 0
-1631 -1646 0
-1631 -1647 0
-1631 -1648 0
-1631 -1649 0
-1631 -1650 0
-1631 -1651 0
-1631 -1652 0
-1631 -1653 0
-1631 -1654 0
-1631 -1655 0
-1631 -1656 0
-1631 -1657 0
-1631 -1658 0
-1631 -1659 0
-1631 -1660 0
-1631 -1661 0
-1631 -1662 0
-1631 -1663 0
-1631 -1664 0
-1631 -1665 0
-1631 -1666 0
-1631 -1667 0
-1631 -1668 0
-1631 -1669 0
-1631 -1670 0
-1632 -1633 0
-1632 -1634 0
-1632 -1635 0
-1632 -1636 0
-1632 -1637 0
-1632 -1638 0
-1632 -1639 0
-1632 -1640 0
-1632 -1641 0
-1632 -1642 0
-1632 -1643 0
-1632 -1644 0
-1632 -1645 0
-1632 -1646 0
-1632 -1647 0
-1632 -1648 0
-1632 -1649 0
-1632 -1650 0
-1632 -1651 0
-1632 -1652 0
-1632 -1653 0
-1632 -1654 0
-1632 -1655 0
-1632 -1656 0
-1632 -1657 0
-1632 -1658 0
-1632 -1659 0
-1632 -1660 0
-1632 -1661 0
-1632 -1662 0
-1632 -1663 0
-1632 -1664 0
-1632 -1665 0
-1632 -1666 0
-1632 -1667 0
-1632 -1668 0
-1632 -1669 0
-1632 -1670 0
-1633 -1634 0
-1633 -1635 0
-1633 -1636 0
-1633 -1637 0
-1633 -1638 0
-1633 -1639 0
-1633 -1640 0
-1633 -1641 0
-1633 -1642 0
-1633 -1643 0
-1633 -1644 0
-1633 -1645 0
-1633 -1646 0
-1633 -1647 0
-1633 -1648 0
-1633 -1649 0
-1633 -1650 0
-1633 -1651 0
-1633 -1652 0
-1633 -1653 0
-1633 -1654 0
-1633 -1655 0
-1633 -1656 0
-1633 -1657 0
-1633 -1658 0
-1633 -1659 0
-1633 -1660 0
-1633 -1661 0
-1633 -1662 0
-1633 -1663 0
-1633 -1664 0
-1633 -1665 0
-1633 -1666 0
-1633 -1667 0
-1633 -1668 0
-1633 -1669 0
-1633 -1670 0
-1634 -1635 0
-1634 -1636 0
-1634 -1637 0
-1634 -1638 0
-1634 -1639 0
-1634 -1640 0
-1634 -1641 0
-1634 -1642 0
-1634 -1643 0
-1634 -1644 0
-1634 -1645 0
-1634 -1646 0
-1634 -1647 0
-1634 -1648 0
-1634 -1649 0
-1634 -1650 0
-1634 -1651 0
-1634 -1652 0
-1634 -1653 0
-1634 -1654 0
-1634 -1655 0
-1634 -1656 0
-1634 -1657 0
-1634 -1658 0
-1634 -1659 0
-1634 -1660 0
-1634 -1661 0
-1634 -1662 0
-1634 -1663 0
-1634 -1664 0
-1634 -1665 0
-1634 -1666 0
-1634 -1667 0
-1634 -1668 0
-1634 -1669 0
-1634 -1670 0
-1635 -1636 0
-1635 -1637 0
-1635 -1638 0
-1635 -1639 0
-1635 -1640 0
-1635 -1641 0
-1635 -1642 0
-1635 -1643 0
-1635 -1644 0
-1635 -1645 0
-1635 -1646 0
-1635 -1647 0
-1635 -1648 0
-1635 -1649 0
-1635 -1650 0
-1635 -1651 0
-1635 -1652 0
-1635 -1653 0
-1635 -1654 0
-1635 -1655 0
-1635 -1656 0
-1635 -1657 0
-1635 -1658 0
-1635 -1659 0
-1635 -1660 0
-1635 -1661 0
-1635 -1662 0
-1635 -1663 0
-1635 -1664 0
-1635 -1665 0
-1635 -1666 0
-1635 -1667 0
-1635 -1668 0
-1635 -1669 0
-1635 -1670 0
-1636 -1637 0
-1636 -1638 0
-1636 -1639 0
-1636 -1640 0
-1636 -1641 0
-1636 -1642 0
-1636 -1643 0
-1636 -1644 0
-1636 -1645 0
-1636 -1646 0
-1636 -1647 0
-1636 -1648 0
-1636 -1649 0
-1636 -1650 0
-1636 -1651 0
-1636 -1652 0
-1636 -1653 0
-1636 -1654 0
-1636 -1655 0
-1636 -1656 0
-1636 -1657 0
-1636 -1658 0
-1636 -1659 0
-1636 -1660 0
-1636 -1661 0
-1636 -1662 0
-1636 -1663 0
-1636 -1664 0
-1636 -1665 0
-1636 -1666 0
-1636 -1667 0
-1636 -1668 0
-1636 -1669 0
-1636 -1670 0
-1637 -1638 0
-1637 -1639 0
-1637 -1640 0
-1637 -1641 0
-1637 -1642 0
-1637 -1643 0
-1637 -1644 0
-1637 -1645 0
-1637 -1646 0
-1637 -1647 0
-1637 -1648 0
-1637 -1649 0
-1637 -1650 0
-1637 -1651 0
-1637 -1652 0
-1637 -1653 0
-1637 -1654 0
-1637 -1655 0
-1637 -1656 0
-1637 -1657 0
-1637 -1658 0
-1637 -1659 0
-1637 -1660 0
-1637 -1661 0
-1637 -1662 0
-1637 -1663 0
-1637 -1664 0
-1637 -1665 0
-1637 -1666 0
-1637 -1667 0
-1637 -1668 0
-1637 -1669 0
-1637 -1670 0
-1638 -1639 0
-1638 -1640 0
-1638 -1641 0
-1638 -1642 0
-1638 -1643 0
-1638 -1644 0
-1638 -1645 0
-1638 -1646 0
-1638 -1647 0
-1638 -1648 0
-1638 -1649 0
-1638 -1650 0
-1638 -1651 0
-1638 -1652 0
-1638 -1653 0
-1638 -1654 0
-1638 -1655 0
-1638 -1656 0
-1638 -1657 0
-1638 -1658 0
-1638 -1659 0
-1638 -1660 0
-1638 -1661 0
-1638 -1662 0
-1638 -1663 0
-1638 -1664 0
-1638 -1665 0
-1638 -1666 0
-1638 -1667 0
-1638 -1668 0
-1638 -1669 0
-1638 -1670 0
-1639 -1640 0
-1639 -1641 0
-1639 -1642 0
-1639 -1643 0
-1639 -1644 0
-1639 -1645 0
-1639 -1646 0
-1639 -1647 0
-1639 -1648 0
-1639 -1649 0
-1639 -1650 0
-1639 -1651 0
-1639 -1652 0
-1639 -1653 0
-1639 -1654 0
-1639 -1655 0
-1639 -1656 0
-1639 -1657 0
-1639 -1658 0
-1639 -1659 0
-1639 -1660 0
-1639 -1661 0
-1639 -1662 0
-1639 -1663 0
-1639 -1664 0
-1639 -1665 0
-1639 -1666 0
-1639 -1667 0
-1639 -1668 0
-1639 -1669 0
-1639 -1670 0
-1640 -1641 0
-1640 -1642 0
-1640 -1643 0
-1640 -1644 0
-1640 -1645 0
-1640 -1646 0
-1640 -1647 0
-1640 -1648 0
-1640 -1649 0
-1640 -1650 0
-1640 -1651 0
-1640 -1652 0
-1640 -1653 0
-1640 -1654 0
-1640 -1655 0
-1640 -1656 0
-1640 -1657 0
-1640 -1658 0
-1640 -1659 0
-1640 -1660 0
-1640 -1661 0
-1640 -1662 0
-1640 -1663 0
-1640 -1664 0
-1640 -1665 0
-1640 -1666 0
-1640 -1667 0
-1640 -1668 0
-1640 -1669 0
-1640 -1670 0
-1641 -1642 0
-1641 -1643 0
-1641 -1644 0
-1641 -1645 0
-1641 -1646 0
-1641 -1647 0
-1641 -1648 0
-1641 -1649 0
-1641 -1650 0
-1641 -1651 0
-1641 -1652 0
-1641 -1653 0
-1641 -1654 0
-1641 -1655 0
-1641 -1656 0
-1641 -1657 0
-1641 -1658 0
-1641 -1659 0
-1641 -1660 0
-1641 -1661 0
-1641 -1662 0
-1641 -1663 0
-1641 -1664 0
-1641 -1665 0
-1641 -1666 0
-1641 -1667 0
-1641 -1668 0
-1641 -1669 0
-1641 -1670 0
-1642 -1643 0
-1642 -1644 0
-1642 -1645 0
-1642 -1646 0
-1642 -1647 0
-1642 -1648 0
-1642 -1649 0
-1642 -1650 0
-1642 -1651 0
-1642 -1652 0
-1642 -1653 0
-1642 -1654 0
-1642 -1655 0
-1642 -1656 0
-1642 -1657 0
-1642 -1658 0
-1642 -1659 0
-1642 -1660 0
-1642 -1661 0
-1642 -1662 0
-1642 -1663 0
-1642 -1664 0
-1642 -1665 0
-1642 -1666 0
-1642 -1667 0
-1642 -1668 0
-1642 -1669 0
-1642 -1670 0
-1643 -1644 0
-1643 -1645 0
-1643 -1646 0
-1643 -1647 0
-1643 -1648 0
-1643 -1649 0
-1643 -1650 0
-1643 -1651 0
-1643 -1652 0
-1643 -1653 0
-1643 -1654 0
-1643 -1655 0
-1643 -1656 0
-1643 -1657 0
-1643 -1658 0
-1643 -1659 0
-1643 -1660 0
-1643 -1661 0
-1643 -1662 0
-1643 -1663 0
-1643 -1664 0
-1643 -1665 0
-1643 -1666 0
-1643 -1667 0
-1643 -1668 0
-1643 -1669 0
-1643 -1670 0
-1644 -1645 0
-1644 -1646 0
-1644 -1647 0
-1644 -1648 0
-1644 -1649 0
-1644 -1650 0
-1644 -1651 0
-1644 -1652 0
-1644 -1653 0
-1644 -1654 0
-1644 -1655 0
-1644 -1656 0
-1644 -1657 0
-1644 -1658 0
-1644 -1659 0
-1644 -1660 0
-1644 -1661 0
-1644 -1662 0
-1644 -1663 0
-1644 -1664 0
-1644 -1665 0
-1644 -1666 0
-1644 -1667 0
-1644 -1668 0
-1644 -1669 0
-1644 -1670 0
-1645 -1646 0
-1645 -1647 0
-1645 -1648 0
-1645 -1649 0
-1645 -1650 0
-1645 -1651 0
-1645 -1652 0
-1645 -1653 0
-1645 -1654 0
-1645 -1655 0
-1645 -1656 0
-1645 -1657 0
-1645 -1658 0
-1645 -1659 0
-1645 -1660 0
-1645 -1661 0
-1645 -1662 0
-1645 -1663 0
-1645 -1664 0
-1645 -1665 0
-1645 -1666 0
-1645 -1667 0
-1645 -1668 0
-1645 -1669 0
-1645 -1670 0
-1646 -1647 0
-1646 -1648 0
-1646 -1649 0
-1646 -1650 0
-1646 -1651 0
-1646 -1652 0
-1646 -1653 0
-1646 -1654 0
-1646 -1655 0
-1646 -1656 0
-1646 -1657 0
-1646 -1658 0
-1646 -1659 0
-1646 -1660 0
-1646 -1661 0
-1646 -1662 0
-1646 -1663 0
-1646 -1664 0
-1646 -1665 0
-1646 -1666 0
-1646 -1667 0
-1646 -1668 0
-1646 -1669 0
-1646 -1670 0
-1647 -1648 0
-1647 -1649 0
-1647 -1650 0
-1647 -1651 0
-1647 -1652 0
-1647 -1653 0
-1647 -1654 0
-1647 -1655 0
-1647 -1656 0
-1647 -1657 0
-1647 -1658 0
-1647 -1659 0
-1647 -1660 0
-1647 -1661 0
-1647 -1662 0
-1647 -1663 0
-1647 -1664 0
-1647 -1665 0
-1647 -1666 0
-1647 -1667 0
-1647 -1668 0
-1647 -1669 0
-1647 -1670 0
-1648 -1649 0
-1648 -1650 0
-1648 -1651 0
-1648 -1652 0
-1648 -1653 0
-1648 -1654 0
-1648 -1655 0
-1648 -1656 0
-1648 -1657 0
-1648 -1658 0
-1648 -1659 0
-1648 -1660 0
-1648 -1661 0
-1648 -1662 0
-1648 -1663 0
-1648 -1664 0
-1648 -1665 0
-1648 -1666 0
-1648 -1667 0
-1648 -1668 0
-1648 -1669 0
-1648 -1670 0
-1649 -1650 0
-1649 -1651 0
-1649 -1652 0
-1649 -1653 0
-1649 -1654 0
-1649 -1655 0
-1649 -1656 0
-1649 -1657 0
-1649 -1658 0
-1649 -1659 0
-1649 -1660 0
-1649 -1661 0
-1649 -1662 0
-1649 -1663 0
-1649 -1664 0
-1649 -1665 0
-1649 -1666 0
-1649 -1667 0
-1649 -1668 0
-1649 -1669 0
-1649 -1670 0
-1650 -1651 0
-1650 -1652 0
-1650 -1653 0
-1650 -1654 0
-1650 -1655 0
-1650 -1656 0
-1650 -1657 0
-1650 -1658 0
-1650 -1659 0
-1650 -1660 0
-1650 -1661 0
-1650 -1662 0
-1650 -1663 0
-1650 -1664 0
-1650 -1665 0
-1650 -1666 0
-1650 -1667 0
-1650 -1668 0
-1650 -1669 0
-1650 -1670 0
-1651 -1652 0
-1651 -1653 0
-1651 -1654 0
-1651 -1655 0
-1651 -1656 0
-1651 -1657 0
-1651 -1658 0
-1651 -1659 0
-1651 -1660 0
-1651 -1661 0
-1651 -1662 0
-1651 -1663 0
-1651 -1664 0
-1651 -1665 0
-1651 -1666 0
-1651 -1667 0
-1651 -1668 0
-1651 -1669 0
-1651 -1670 0
-1652 -1653 0
-1652 -1654 0
-1652 -1655 0
-1652 -1656 0
-1652 -1657 0
-1652 -1658 0
-1652 -1659 0
-1652 -1660 0
-1652 -1661 0
-1652 -1662 0
-1652 -1663 0
-1652 -1664 0
-1652 -1665 0
-1652 -1666 0
-1652 -1667 0
-1652 -1668 0
-1652 -1669 0
-1652 -1670 0
-1653 -1654 0
-1653 -1655 0
-1653 -1656 0
-1653 -1657 0
-1653 -1658 0
-1653 -1659 0
-1653 -1660 0
-1653 -1661 0
-1653 -1662 0
-1653 -1663 0
-1653 -1664 0
-1653 -1665 0
-1653 -1666 0
-1653 -1667 0
-1653 -1668 0
-1653 -1669 0
-1653 -1670 0
-1654 -1655 0
-1654 -1656 0
-1654 -1657 0
-1654 -1658 0
-1654 -1659 0
-1654 -1660 0
-1654 -1661 0
-1654 -1662 0
-1654 -1663 0
-1654 -1664 0
-1654 -1665 0
-1654 -1666 0
-1654 -1667 0
-1654 -1668 0
-1654 -1669 0
-1654 -1670 0
-1655 -1656 0
-1655 -1657 0
-1655 -1658 0
-1655 -1659 0
-1655 -1660 0
-1655 -1661 0
-1655 -1662 0
-1655 -1663 0
-1655 -1664 0
-1655 -1665 0
-1655 -1666 0
-1655 -1667 0
-1655 -1668 0
-1655 -1669 0
-1655 -1670 0
-1656 -1657 0
-1656 -1658 0
-1656 -1659 0
-1656 -1660 0
-1656 -1661 0
-1656 -1662 0
-1656 -1663 0
-1656 -1664 0
-1656 -1665 0
-1656 -1666 0
-1656 -1667 0
-1656 -1668 0
-1656 -1669 0
-1656 -1670 0
-1657 -1658 0
-1657 -1659 0
-1657 -1660 0
-1657 -1661 0
-1657 -1662 0
-1657 -1663 0
-1657 -1664 0
-1657 -1665 0
-1657 -1666 0
-1657 -1667 0
-1657 -1668 0
-1657 -1669 0
-1657 -1670 0
-1658 -1659 0
-1658 -1660 0
-1658 -1661 0
-1658 -1662 0
-1658 -1663 0
-1658 -1664 0
-1658 -1665 0
-1658 -1666 0
-1658 -1667 0
-1658 -1668 0
-1658 -1669 0
-1658 -1670 0
-1659 -1660 0
-1659 -1661 0
-1659 -1662 0
-1659 -1663 0
-1659 -1664 0
-1659 -1665 0
-1659 -1666 0
-1659 -1667 0
-1659 -1668 0
-1659 -1669 0
-1659 -1670 0
-1660 -1661 0
-1660 -1662 0
-1660 -1663 0
-1660 -1664 0
-1660 -1665 0
-1660 -1666 0
-1660 -1667 0
-1660 -1668 0
-1660 -1669 0
-1660 -1670 0
-1661 -1662 0
-1661 -1663 0
-1661 -1664 0
-1661 -1665 0
-1661 -1666 0
-1661 -1667 0
-1661 -1668 0
-1661 -1669 0
-1661 -1670 0
-1662 -1663 0
-1662 -1664 0
-1662 -1665 0
-1662 -1666 0
-1662 -1667 0
-1662 -1668 0
-1662 -1669 0
-1662 -1670 0
-1663 -1664 0
-1663 -1665 0
-1663 -1666 0
-1663 -1667 0
-1663 -1668 0
-1663 -1669 0
-1663 -1670 0
-1664 -1665 0
-1664 -1666 0
-1664 -1667 0
-1664 -1668 0
-1664 -1669 0
-1664 -1670 0
-1665 -1666 0
-1665 -1667 0
-1665 -1668 0
-1665 -1669 0
-1665 -1670 0
-1666 -1667 0
-1666 -1668 0
-1666 -1669 0
-1666 -1670 0
-1667 -1668 0
-1667 -1669 0
-1667 -1670 0
-1668 -1669 0
-1668 -1670 0
-1669 -1670 0
-1562 42 1617 0
-1562 -42 1616 0
-1563 42 1618 0
-1563 -42 1617 0
-1564 42 1619 0
-1564 -42 1618 0
-1565 42 1620 0
-1565 -42 1619 0
-1566 42 1621 0
-1566 -42 1620 0
-1567 42 1622 0
-1567 -42 1621 0
-1568 42 1623 0
-1568 -42 1622 0
-1569 42 1624 0
-1569 -42 1623 0
-1570 42 1625 0
-1570 -42 1624 0
-1571 42 1626 0
-1571 -42 1625 0
-1572 42 1627 0
-1572 -42 1626 0
-1573 42 1628 0
-1573 -42 1627 0
-1574 42 1629 0
-1574 -42 1628 0
-1575 42 1630 0
-1575 -42 1629 0
-1576 42 1631 0
-1576 -42 1630 0
-1577 42 1632 0
-1577 -42 1631 0
-1578 42 1633 0
-1578 -42 1632 0
-1579 42 1634 0
-1579 -42 1633 0
-1580 42 1635 0
-1580 -42 1634 0
-1581 42 1636 0
-1581 -42 1635 0
-1582 42 1637 0
-1582 -42 1636 0
-1583 42 1638 0
-1583 -42 1637 0
-1584 42 1639 0
-1584 -42 1638 0
-1585 42 1640 0
-1585 -42 1639 0
-1586 42 1641 0
-1586 -42 1640 0
-1587 42 1642 0
-1587 -42 1641 0
-1588 42 1643 0
-1588 -42 1642 0
-1589 42 1644 0
-1589 -42 1643 0
-1590 42 1645 0
-1590 -42 1644 0
-1591 42 1646 0
-1591 -42 1645 0
-1592 42 1647 0
-1592 -42 1646 0
-1593 42 1648 0
-1593 -42 1647 0
-1594 42 1649 0
-1594 -42 1648 0
-1595 42 1650 0
-1595 -42 1649 0
-1596 42 1651 0
-1596 -42 1650 0
-1597 42 1652 0
-1597 -42 1651 0
-1598 42 1653 0
-1598 -42 1652 0
-1599 42 1654 0
-1599 -42 1653 0
-1600 42 1655 0
-1600 -42 1654 0
-1601 42 1656 0
-1601 -42 1655 0
-1602 42 1657 0
-1602 -42 1656 0
-1603 42 1658 0
-1603 -42 1657 0
-1604 42 1659 0
-1604 -42 1658 0
-1605 42 1660 0
-1605 -42 1659 0
-1606 42 1661 0
-1606 -42 1660 0
-1607 42 1662 0
-1607 -42 1661 0
-1608 42 1663 0
-1608 -42 1662 0
-1609 42 1664 0
-1609 -42 1663 0
-1610 42 1665 0
-1610 -42 1664 0
-1611 42 1666 0
-1611 -42 1665 0
-1612 42 1667 0
-1612 -42 1666 0
-1613 42 1668 0
-1613 -42 1667 0
-1614 42 1669 0
-1614 -42 1668 0
-1615 42 1670 0
-1615 -42 1669 0
1671 1672 1673 1674 1675 1676 1677 1678 1679 1680 1681 1682 1683 1684 1685 1686 1687 1688 1689 1690 1691 1692 1693 1694 1695 1696 1697 1698 1699 1700 1701 1702 1703 1704 1705 1706 1707 1708 1709 1710 1711 1712 1713 1714 1715 1716 1717 1718 1719 1720 1721 1722 1723 1724 1725 1726 0
-1671 -1672 0
-1671 -1673 0
-1671 -1674 0
-1671 -1675 0
-1671 -1676 0
-1671 -1677 0
-1671 -1678 0
-1671 -1679 0
-1671 -1680 0
-1671 -1681 0
-1671 -1682 0
-1671 -1683 0
-1671 -1684 0
-1671 -1685 0
-1671 -1686 0
-1671 -1687 0
-1671 -1688 0
-1671 -1689 0
-1671 -1690 0
-1671 -1691 0
-1671 -1692 0
-1671 -1693 0
-1671 -1694 0
-1671 -1695 0
-1671 -1696 0
-1671 -1697 0
-1671 -1698 0
-1671 -1699 0
-1671 -1700 0
-1671 -1701 0
-1671 -1702 0
-1671 -1703 0
-1671 -1704 0
-1671 -1705 0
-1671 -1706 0
-1671 -1707 0
-1671 -1708 0
-1671 -1709 0
-1671 -1710 0
-1671 -1711 0
-1671 -1712 0
-1671 -1713 0
-1671 -1714 0
-1671 -1715 0
-1671 -1716 0
-1671 -1717 0
-1671 -1718 0
-1671 -1719 0
-1671 -1720 0
-1671 -1721 0
-1671 -1722 0
-1671 -1723 0
-1671 -1724 0
-1671 -1725 0
-1671 -1726 0
-1672 -1673 0
-1672 -1674 0
-1672 -1675 0
-1672 -1676 0
-1672 -1677 0
-1672 -1678 0
-1672 -1679 0
-1672 -1680 0
-1672 -1681 0
-1672 -1682 0
-1672 -1683 0
-1672 -1684 0
-1672 -1685 0
-1672 -1686 0
-1672 -1687 0
-1672 -1688 0
-1672 -1689 0
-1672 -1690 0
-1672 -1691 0
-1672 -1692 0
-1672 -1693 0
-1672 -1694 0
-1672 -1695 0
-1672 -1696 0
-1672 -1697 0
-1672 -1698 0
-1672 -1699 0
-1672 -1700 0
-1672 -1701 0
-1672 -1702 0
-1672 -1703 0
-1672 -1704 0
-1672 -1705 0
-1672 -1706 0
-1672 -1707 0
-1672 -1708 0
-1672 -1709 0
-1672 -1710 0
-1672 -1711 0
-1672 -1712 0
-1672 -1713 0
-1672 -1714 0
-1672 -1715 0
-1672 -1716 0
-1672 -1717 0
-1672 -1718 0
-1672 -1719 0
-1672 -1720 0
-1672 -1721 0
-1672 -1722 0
-1672 -1723 0
-1672 -1724 0
-1672 -1725 0
-1672 -1726 0
-1673 -1674 0
-1673 -1675 0
-1673 -1676 0
-1673 -1677 0
-1673 -1678 0
-1673 -1679 0
-1673 -1680 0
-1673 -1681 0
-1673 -1682 0
-1673 -1683 0
-1673 -1684 0
-1673 -1685 0
-1673 -1686 0
-1673 -1687 0
-1673 -1688 0
-1673 -1689 0
-1673 -1690 0
-1673 -1691 0
-1673 -1692 0
-1673 -1693 0
-1673 -1694 0
-1673 -1695 0
-1673 -1696 0
-1673 -1697 0
-1673 -1698 0
-1673 -1699 0
-1673 -1700 0
-1673 -1701 0
-1673 -1702 0
-1673 -1703 0
-1673 -1704 0
-1673 -1705 0
-1673 -1706 0
-1673 -1707 0
-1673 -1708 0
-1673 -1709 0
-1673 -1710 0
-1673 -1711 0
-1673 -1712 0
-1673 -1713 0
-1673 -1714 0
-1673 -1715 0
-1673 -1716 0
-1673 -1717 0
-1673 -1718 0
-1673 -1719 0
-1673 -1720 0
-1673 -1721 0
-1673 -1722 0
-1673 -1723 0
-1673 -1724 0
-1673 -1725 0
-1673 -1726 0
-1674 -1675 0
-1674 -1676 0
-1674 -1677 0
-1674 -1678 0
-1674 -1679 0
-1674 -1680 0
-1674 -1681 0
-1674 -1682 0
-1674 -1683 0
-1674 -1684 0
-1674 -1685 0
-1674 -1686 0
-1674 -1687 0
-1674 -1688 0
-1674 -1689 0
-1674 -1690 0
-1674 -1691 0
-1674 -1692 0
-1674 -1693 0
-1674 -1694 0
-1674 -1695 0
-1674 -1696 0
-1674 -1697 0
-1674 -1698 0
-1674 -1699 0
-1674 -1700 0
-1674 -1701 0
-1674 -1702 0
-1674 -1703 0
-1674 -1704 0
-1674 -1705 0
-1674 -1706 0
-1674 -1707 0
-1674 -1708 0
-1674 -1709 0
-1674 -1710 0
-1674 -1711 0
-1674 -1712 0
-1674 -1713 0
-1674 -1714 0
-1674 -1715 0
-1674 -1716 0
-1674 -1717 0
-1674 -1718 0
-1674 -1719 0
-1674 -1720 0
-1674 -1721 0
-1674 -1722 0
-1674 -1723 0
-1674 -1724 0
-1674 -1725 0
-1674 -1726 0
-1675 -1676 0
-1675 -1677 0
-1675 -1678 0
-1675 -1679 0
-1675 -1680 0
-1675 -1681 0
-1675 -1682 0
-1675 -1683 0
-1675 -1684 0
-1675 -1685 0
-1675 -1686 0
-1675 -1687 0
-1675 -1688 0
-1675 -1689 0
-1675 -1690 0
-1675 -1691 0
-1675 -1692 0
-1675 -1693 0
-1675 -1694 0
-1675 -1695 0
-1675 -1696 0
-1675 -1697 0
-1675 -1698 0
-1675 -1699 0
-1675 -1700 0
-1675 -1701 0
-1675 -1702 0
-1675 -1703 0
-1675 -1704 0
-1675 -1705 0
-1675 -1706 0
-1675 -1707 0
-1675 -1708 0
-1675 -1709 0
-1675 -1710 0
-1675 -1711 0
-1675 -1712 0
-1675 -1713 0
-1675 -1714 0
-1675 -1715 0
-1675 -1716 0
-1675 -1717 0
-1675 -1718 0
-1675 -1719 0
-1675 -1720 0
-1675 -1721 0
-1675 -1722 0
-1675 -1723 0
-1675 -1724 0
-1675 -1725 0
-1675 -1726 0
-1676 -1677 0
-1676 -1678 0
-1676 -1679 0
-1676 -1680 0
-1676 -1681 0
-1676 -1682 0
-1676 -1683 0
-1676 -1684 0
-1676 -1685 0
-1676 -1686 0
-1676 -1687 0
-1676 -1688 0
-1676 -1689 0
-1676 -1690 0
-1676 -1691 0
-1676 -1692 0
-1676 -1693 0
-1676 -1694 0
-1676 -1695 0
-1676 -1696 0
-1676 -1697 0
-1676 -1698 0
-1676 -1699 0
-1676 -1700 0
-1676 -1701 0
-1676 -1702 0
-1676 -1703 0
-1676 -1704 0
-1676 -1705 0
-1676 -1706 0
-1676 -1707 0
-1676 -1708 0
-1676 -1709 0
-1676 -1710 0
-1676 -1711 0
-1676 -1712 0
-1676 -1713 0
-1676 -1714 0
-1676 -1715 0
-1676 -1716 0
-1676 -1717 0
-1676 -1718 0
-1676 -1719 0
-1676 -1720 0
-1676 -1721 0
-1676 -1722 0
-1676 -1723 0
-1676 -1724 0
-1676 -1725 0
-1676 -1726 0
-1677 -1678 0
-1677 -1679 0
-1677 -1680 0
-1677 -1681 0
-1677 -1682 0
-1677 -1683 0
-1677 -1684 0
-1677 -1685 0
-1677 -1686 0
-1677 -1687 0
-1677 -1688 0
-1677 -1689 0
-1677 -1690 0
-1677 -1691 0
-1677 -1692 0
-1677 -1693 0
-1677 -1694 0
-1677 -1695 0
-1677 -1696 0
-1677 -1697 0
-1677 -1698 0
-1677 -1699 0
-1677 -1700 0
-1677 -1701 0
-1677 -1702 0
-1677 -1703 0
-1677 -1704 0
-1677 -1705 0
-1677 -1706 0
-1677 -1707 0
-1677 -1708 0
-1677 -1709 0
-1677 -1710 0
-1677 -1711 0
-1677 -1712 0
-1677 -1713 0
-1677 -1714 0
-1677 -1715 0
-1677 -1716 0
-1677 -1717 0
-1677 -1718 0
-1677 -1719 0
-1677 -1720 0
-1677 -1721 0
-1677 -1722 0
-1677 -1723 0
-1677 -1724 0
-1677 -1725 0
-1677 -1726 0
-1678 -1679 0
-1678 -1680 0
-1678 -1681 0
-1678 -1682 0
-1678 -1683 0
-1678 -1684 0
-1678 -1685 0
-1678 -1686 0
-1678 -1687 0
-1678 -1688 0
-1678 -1689 0
-1678 -1690 0
-1678 -1691 0
-1678 -1692 0
-1678 -1693 0
-1678 -1694 0
-1678 -1695 0
-1678 -1696 0
-1678 -1697 0
-1678 -1698 0
-1678 -1699 0
-1678 -1700 0
-1678 -1701 0
-1678 -1702 0
-1678 -1703 0
-1678 -1704 0
-1678 -1705 0
-1678 -1706 0
-1678 -1707 0
-1678 -1708 0
-1678 -1709 0
-1678 -1710 0
-1678 -1711 0
-1678 -1712 0
-1678 -1713 0
-1678 -1714 0
-1678 -1715 0
-1678 -1716 0
-1678 -1717 0
-1678 -1718 0
-1678 -1719 0
-1678 -1720 0
-1678 -1721 0
-1678 -1722 0
-1678 -1723 0
-1678 -1724 0
-1678 -1725 0
-1678 -1726 0
-1679 -1680 0
-1679 -1681 0
-1679 -1682 0
-1679 -1683 0
-1679 -1684 0
-1679 -1685 0
-1679 -1686 0
-1679 -1687 0
-1679 -1688 0
-1679 -1689 0
-1679 -1690 0
-1679 -1691 0
-1679 -1692 0
-1679 -1693 0
-1679 -1694 0
-1679 -1695 0
-1679 -1696 0
-1679 -1697 0
-1679 -1698 0
-1679 -1699 0
-1679 -1700 0
-1679 -1701 0
-1679 -1702 0
-1679 -1703 0
-1679 -1704 0
-1679 -1705 0
-1679 -1706 0
-1679 -1707 0
-1679 -1708 0
-1679 -1709 0
-1679 -1710 0
-1679 -1711 0
-1679 -1712 0
-1679 -1713 0
-1679 -1714 0
-1679 -1715 0
-1679 -1716 0
-1679 -1717 0
-1679 -1718 0
-1679 -1719 0
-1679 -1720 0
-1679 -1721 0
-1679 -1722 0
-1679 -1723 0
-1679 -1724 0
-1679 -1725 0
-1679 -1726 0
-1680 -1681 0
-1680 -1682 0
-1680 -1683 0
-1680 -1684 0
-1680 -1685 0
-1680 -1686 0
-1680 -1687 0
-1680 -1688 0
-1680 -1689 0
-1680 -1690 0
-1680 -1691 0
-1680 -1692 0
-1680 -1693 0
-1680 -1694 0
-1680 -1695 0
-1680 -1696 0
-1680 -1697 0
-1680 -1698 0
-1680 -1699 0
-1680 -1700 0
-1680 -1701 0
-1680 -1702 0
-1680 -1703 0
-1680 -1704 0
-1680 -1705 0
-1680 -1706 0
-1680 -1707 0
-1680 -1708 0
-1680 -1709 0
-1680 -1710 0
-1680 -1711 0
-1680 -1712 0
-1680 -1713 0
-1680 -1714 0
-1680 -1715 0
-1680 -1716 0
-1680 -1717 0
-1680 -1718 0
-1680 -1719 0
-1680 -1720 0
-1680 -1721 0
-1680 -1722 0
-1680 -1723 0
-1680 -1724 0
-1680 -1725 0
-1680 -1726 0
-1681 -1682 0
-1681 -1683 0
-1681 -1684 0
-1681 -1685 0
-1681 -1686 0
-1681 -1687 0
-1681 -1688 0
-1681 -1689 0
-1681 -1690 0
-1681 -1691 0
-1681 -1692 0
-1681 -1693 0
-1681 -1694 0
-1681 -1695 0
-1681 -1696 0
-1681 -1697 0
-1681 -1698 0
-1681 -1699 0
-1681 -1700 0
-1681 -1701 0
-1681 -1702 0
-1681 -1703 0
-1681 -1704 0
-1681 -1705 0
-1681 -1706 0
-1681 -1707 0
-1681 -1708 0
-1681 -1709 0
-1681 -1710 0
-1681 -1711 0
-1681 -1712 0
-1681 -1713 0
-1681 -1714 0
-1681 -1715 0
-1681 -1716 0
-1681 -1717 0
-1681 -1718 0
-1681 -1719 0
-1681 -1720 0
-1681 -1721 0
-1681 -1722 0
-1681 -1723 0
-1681 -1724 0
-1681 -1725 0
-1681 -1726 0
-1682 -1683 0
-1682 -1684 0
-1682 -1685 0
-1682 -1686 0
-1682 -1687 0
-1682 -1688 0
-1682 -1689 0
-1682 -1690 0
-1682 -1691 0
-1682 -1692 0
-1682 -1693 0
-1682 -1694 0
-1682 -1695 0
-1682 -1696 0
-1682 -1697 0
-1682 -1698 0
-1682 -1699 0
-1682 -1700 0
-1682 -1701 0
-1682 -1702 0
-1682 -1703 0
-1682 -1704 0
-1682 -1705 0
-1682 -1706 0
-1682 -1707 0
-1682 -1708 0
-1682 -1709 0
-1682 -1710 0
-1682 -1711 0
-1682 -1712 0
-1682 -1713 0
-1682 -1714 0
-1682 -1715 0
-1682 -1716 0
-1682 -1717 0
-1682 -1718 0
-1682 -1719 0
-1682 -1720 0
-1682 -1721 0
-1682 -1722 0
-1682 -1723 0
-1682 -1724 0
-1682 -1725 0
-1682 -1726 0
-1683 -1684 0
-1683 -1685 0
-1683 -1686 0
-1683 -1687 0
-1683 -1688 0
-1683 -1689 0
-1683 -1690 0
-1683 -1691 0
-1683 -1692 0
-1683 -1693 0
-1683 -1694 0
-1683 -1695 0
-1683 -1696 0
-1683 -1697 0
-1683 -1698 0
-1683 -1699 0
-1683 -1700 0
-1683 -1701 0
-1683 -1702 0
-1683 -1703 0
-1683 -1704 0
-1683 -1705 0
-1683 -1706 0
-1683 -1707 0
-1683 -1708 0
-1683 -1709 0
-1683 -1710 0
-1683 -1711 0
-1683 -1712 0
-1683 -1713 0
-1683 -1714 0
-1683 -1715 0
-1683 -1716 0
-1683 -1717 0
-1683 -1718 0
-1683 -1719 0
-1683 -1720 0
-1683 -1721 0
-1683 -1722 0
-1683 -1723 0
-1683 -1724 0
-1683 -1725 0
-1683 -1726 0
-1684 -1685 0
-1684 -1686 0
-1684 -1687 0
-1684 -1688 0
-1684 -1689 0
-1684 -1690 0
-1684 -1691 0
-1684 -1692 0
-1684 -1693 0
-1684 -1694 0
-1684 -1695 0
-1684 -1696 0
-1684 -1697 0
-1684 -1698 0
-1684 -1699 0
-1684 -1700 0
-1684 -1701 0
-1684 -1702 0
-1684 -1703 0
-1684 -1704 0
-1684 -1705 0
-1684 -1706 0
-1684 -1707 0
-1684 -1708 0
-1684 -1709 0
-1684 -1710 0
-1684 -1711 0
-1684 -1712 0
-1684 -1713 0
-1684 -1714 0
-1684 -1715 0
-1684 -1716 0
-1684 -1717 0
-1684 -1718 0
-1684 -1719 0
-1684 -1720 0
-1684 -1721 0
-1684 -1722 0
-1684 -1723 0
-1684 -1724 0
-1684 -1725 0
-1684 -1726 0
-1685 -1686 0
-1685 -1687 0
-1685 -1688 0
-1685 -1689 0
-1685 -1690 0
-1685 -1691 0
-1685 -1692 0
-1685 -1693 0
-1685 -1694 0
-1685 -1695 0
-1685 -1696 0
-1685 -1697 0
-1685 -1698 0
-1685 -1699 0
-1685 -1700 0
-1685 -1701 0
-1685 -1702 0
-1685 -1703 0
-1685 -1704 0
-1685 -1705 0
-1685 -1706 0
-1685 -1707 0
-1685 -1708 0
-1685 -1709 0
-1685 -1710 0
-1685 -1711 0
-1685 -1712 0
-1685 -1713 0
-1685 -1714 0
-1685 -1715 0
-1685 -1716 0
-1685 -1717 0
-1685 -1718 0
-1685 -1719 0
-1685 -1720 0
-1685 -1721 0
-1685 -1722 0
-1685 -1723 0
-1685 -1724 0
-1685 -1725 0
-1685 -1726 0
-1686 -1687 0
-1686 -1688 0
-1686 -1689 0
-1686 -1690 0
-1686 -1691 0
-1686 -1692 0
-1686 -1693 0
-1686 -1694 0
-1686 -1695 0
-1686 -1696 0
-1686 -1697 0
-1686 -1698 0
-1686 -1699 0
-1686 -1700 0
-1686 -1701 0
-1686 -1702 0
-1686 -1703 0
-1686 -1704 0
-1686 -1705 0
-1686 -1706 0
-1686 -1707 0
-1686 -1708 0
-1686 -1709 0
-1686 -1710 0
-1686 -1711 0
-1686 -1712 0
-1686 -1713 0
-1686 -1714 0
-1686 -1715 0
-1686 -1716 0
-1686 -1717 0
-1686 -1718 0
-1686 -1719 0
-1686 -1720 0
-1686 -1721 0
-1686 -1722 0
-1686 -1723 0
-1686 -1724 0
-1686 -1725 0
-1686 -1726 0
-1687 -1688 0
-1687 -1689 0
-1687 -1690 0
-1687 -1691 0
-1687 -1692 0
-1687 -1693 0
-1687 -1694 0
-1687 -1695 0
-1687 -1696 0
-1687 -1697 0
-1687 -1698 0
-1687 -1699 0
-1687 -1700 0
-1687 -1701 0
-1687 -1702 0
-1687 -1703 0
-1687 -1704 0
-1687 -1705 0
-1687 -1706 0
-1687 -1707 0
-1687 -1708 0
-1687 -1709 0
-1687 -1710 0
-1687 -1711 0
-1687 -1712 0
-1687 -1713 0
-1687 -1714 0
-1687 -1715 0
-1687 -1716 0
-1687 -1717 0
-1687 -1718 0
-1687 -1719 0
-1687 -1720 0
-1687 -1721 0
-1687 -1722 0
-1687 -1723 0
-1687 -1724 0
-1687 -1725 0
-1687 -1726 0
-1688 -1689 0
-1688 -1690 0
-1688 -1691 0
-1688 -1692 0
-1688 -1693 0
-1688 -1694 0
-1688 -1695 0
-1688 -1696 0
-1688 -1697 0
-1688 -1698 0
-1688 -1699 0
-1688 -1700 0
-1688 -1701 0
-1688 -1702 0
-1688 -1703 0
-1688 -1704 0
-1688 -1705 0
-1688 -1706 0
-1688 -1707 0
-1688 -1708 0
-1688 -1709 0
-1688 -1710 0
-1688 -1711 0
-1688 -1712 0
-1688 -1713 0
-1688 -1714 0
-1688 -1715 0
-1688 -1716 0
-1688 -1717 0
-1688 -1718 0
-1688 -1719 0
-1688 -1720 0
-1688 -1721 0
-1688 -1722 0
-1688 -1723 0
-1688 -1724 0
-1688 -1725 0
-1688 -1726 0
-1689 -1690 0
-1689 -1691 0
-1689 -1692 0
-1689 -1693 0
-1689 -1694 0
-1689 -1695 0
-1689 -1696 0
-1689 -1697 0
-1689 -1698 0
-1689 -1699 0
-1689 -1700 0
-1689 -1701 0
-1689 -1702 0
-1689 -1703 0
-1689 -1704 0
-1689 -1705 0
-1689 -1706 0
-1689 -1707 0
-1689 -1708 0
-1689 -1709 0
-1689 -1710 0
-1689 -1711 0
-1689 -1712 0
-1689 -1713 0
-1689 -1714 0
-1689 -1715 0
-1689 -1716 0
-1689 -1717 0
-1689 -1718 0
-1689 -1719 0
-1689 -1720 0
-1689 -1721 0
-1689 -1722 0
-1689 -1723 0
-1689 -1724 0
-1689 -1725 0
-1689 -1726 0
-1690 -1691 0
-1690 -1692 0
-1690 -1693 0
-1690 -1694 0
-1690 -1695 0
-1690 -1696 0
-1690 -1697 0
-1690 -1698 0
-1690 -1699 0
-1690 -1700 0
-1690 -1701 0
-1690 -1702 0
-1690 -1703 0
-1690 -1704 0
-1690 -1705 0
-1690 -1706 0
-1690 -1707 0
-1690 -1708 0
-1690 -1709 0
-1690 -1710 0
-1690 -1711 0
-1690 -1712 0
-1690 -1713 0
-1690 -1714 0
-1690 -1715 0
-1690 -1716 0
-1690 -1717 0
-1690 -1718 0
-1690 -1719 0
-1690 -1720 0
-1690 -1721 0
-1690 -1722 0
-1690 -1723 0
-1690 -1724 0
-1690 -1725 0
-1690 -1726 0
-1691 -1692 0
-1691 -1693 0
-1691 -1694 0
-1691 -1695 0
-1691 -1696 0
-1691 -1697 0
-1691 -1698 0
-1691 -1699 0
-1691 -1700 0
-1691 -1701 0
-1691 -1702 0
-1691 -1703 0
-1691 -1704 0
-1691 -1705 0
-1691 -1706 0
-1691 -1707 0
-1691 -1708 0
-1691 -1709 0
-1691 -1710 0
-1691 -1711 0
-1691 -1712 0
-1691 -1713 0
-1691 -1714 0
-1691 -1715 0
-1691 -1716 0
-1691 -1717 0
-1691 -1718 0
-1691 -1719 0
-1691 -1720 0
-1691 -1721 0
-1691 -1722 0
-1691 -1723 0
-1691 -1724 0
-1691 -1725 0
-1691 -1726 0
-1692 -1693 0
-1692 -1694 0
-1692 -1695 0
-1692 -1696 0
-1692 -1697 0
-1692 -1698 0
-1692 -1699 0
-1692 -1700 0
-1692 -1701 0
-1692 -1702 0
-1692 -1703 0
-1692 -1704 0
-1692 -1705 0
-1692 -1706 0
-1692 -1707 0
-1692 -1708 0
-1692 -1709 0
-1692 -1710 0
-1692 -1711 0
-1692 -1712 0
-1692 -1713 0
-1692 -1714 0
-1692 -1715 0
-1692 -1716 0
-1692 -1717 0
-1692 -1718 0
-1692 -1719 0
-1692 -1720 0
-1692 -1721 0
-1692 -1722 0
-1692 -1723 0
-1692 -1724 0
-1692 -1725 0
-1692 -1726 0
-1693 -1694 0
-1693 -1695 0
-1693 -1696 0
-1693 -1697 0
-1693 -1698 0
-1693 -1699 0
-1693 -1700 0
-1693 -1701 0
-1693 -1702 0
-1693 -1703 0
-1693 -1704 0
-1693 -1705 0
-1693 -1706 0
-1693 -1707 0
-1693 -1708 0
-1693 -1709 0
-1693 -1710 0
-1693 -1711 0
-1693 -1712 0
-1693 -1713 0
-1693 -1714 0
-1693 -1715 0
-1693 -1716 0
-1693 -1717 0
-1693 -1718 0
-1693 -1719 0
-1693 -1720 0
-1693 -1721 0
-1693 -1722 0
-1693 -1723 0
-1693 -1724 0
-1693 -1725 0
-1693 -1726 0
-1694 -1695 0
-1694 -1696 0
-1694 -1697 0
-1694 -1698 0
-1694 -1699 0
-1694 -1700 0
-1694 -1701 0
-1694 -1702 0
-1694 -1703 0
-1694 -1704 0
-1694 -1705 0
-1694 -1706 0
-1694 -1707 0
-1694 -1708 0
-1694 -1709 0
-1694 -1710 0
-1694 -1711 0
-1694 -1712 0
-1694 -1713 0
-1694 -1714 0
-1694 -1715 0
-1694 -1716 0
-1694 -1717 0
-1694 -1718 0
-1694 -1719 0
-1694 -1720 0
-1694 -1721 0
-1694 -1722 0
-1694 -1723 0
-1694 -1724 0
-1694 -1725 0
-1694 -1726 0
-1695 -1696 0
-1695 -1697 0
-1695 -1698 0
-1695 -1699 0
-1695 -1700 0
-1695 -1701 0
-1695 -1702 0
-1695 -1703 0
-1695 -1704 0
-1695 -1705 0
-1695 -1706 0
-1695 -1707 0
-1695 -1708 0
-1695 -1709 0
-1695 -1710 0
-1695 -1711 0
-1695 -1712 0
-1695 -1713 0
-1695 -1714 0
-1695 -1715 0
-1695 -1716 0
-1695 -1717 0
-1695 -1718 0
-1695 -1719 0
-1695 -1720 0
-1695 -1721 0
-1695 -1722 0
-1695 -1723 0
-1695 -1724 0
-1695 -1725 0
-1695 -1726 0
-1696 -1697 0
-1696 -1698 0
-1696 -1699 0
-1696 -1700 0
-1696 -1701 0
-1696 -1702 0
-1696 -1703 0
-1696 -1704 0
-1696 -1705 0
-1696 -1706 0
-1696 -1707 0
-1696 -1708 0
-1696 -1709 0
-1696 -1710 0
-1696 -1711 0
-1696 -1712 0
-1696 -1713 0
-1696 -1714 0
-1696 -1715 0
-1696 -1716 0
-1696 -1717 0
-1696 -1718 0
-1696 -1719 0
-1696 -1720 0
-1696 -1721 0
-1696 -1722 0
-1696 -1723 0
-1696 -1724 0
-1696 -1725 0
-1696 -1726 0
-1697 -1698 0
-1697 -1699 0
-1697 -1700 0
-1697 -1701 0
-1697 -1702 0
-1697 -1703 0
-1697 -1704 0
-1697 -1705 0
-1697 -1706 0
-1697 -1707 0
-1697 -1708 0
-1697 -1709 0
-1697 -1710 0
-1697 -1711 0
-1697 -1712 0
-1697 -1713 0
-1697 -1714 0
-1697 -1715 0
-1697 -1716 0
-1697 -1717 0
-1697 -1718 0
-1697 -1719 0
-1697 -1720 0
-1697 -1721 0
-1697 -1722 0
-1697 -1723 0
-1697 -1724 0
-1697 -1725 0
-1697 -1726 0
-1698 -1699 0
-1698 -1700 0
-1698 -1701 0
-1698 -1702 0
-1698 -1703 0
-1698 -1704 0
-1698 -1705 0
-1698 -1706 0
-1698 -1707 0
-1698 -1708 0
-1698 -1709 0
-1698 -1710 0
-1698 -1711 0
-1698 -1712 0
-1698 -1713 0
-1698 -1714 0
-1698 -1715 0
-1698 -1716 0
-1698 -1717 0
-1698 -1718 0
-1698 -1719 0
-1698 -1720 0
-1698 -1721 0
-1698 -1722 0
-1698 -1723 0
-1698 -1724 0
-1698 -1725 0
-1698 -1726 0
-1699 -1700 0
-1699 -1701 0
-1699 -1702 0
-1699 -1703 0
-1699 -1704 0
-1699 -1705 0
-1699 -1706 0
-1699 -1707 0
-1699 -1708 0
-1699 -1709 0
-1699 -1710 0
-1699 -1711 0
-1699 -1712 0
-1699 -1713 0
-1699 -1714 0
-1699 -1715 0
-1699 -1716 0
-1699 -1717 0
-1699 -1718 0
-1699 -1719 0
-1699 -1720 0
-1699 -1721 0
-1699 -1722 0
-1699 -1723 0
-1699 -1724 0
-1699 -1725 0
-1699 -1726 0
-1700 -1701 0
-1700 -1702 0
-1700 -1703 0
-1700 -1704 0
-1700 -1705 0
-1700 -1706 0
-1700 -1707 0
-1700 -1708 0
-1700 -1709 0
-1700 -1710 0
-1700 -1711 0
-1700 -1712 0
-1700 -1713 0
-1700 -1714 0
-1700 -1715 0
-1700 -1716 0
-1700 -1717 0
-1700 -1718 0
-1700 -1719 0
-1700 -1720 0
-1700 -1721 0
-1700 -1722 0
-1700 -1723 0
-1700 -1724 0
-1700 -1725 0
-1700 -1726 0
-1701 -1702 0
-1701 -1703 0
-1701 -1704 0
-1701 -1705 0
-1701 -1706 0
-1701 -1707 0
-1701 -1708 0
-1701 -1709 0
-1701 -1710 0
-1701 -1711 0
-1701 -1712 0
-1701 -1713 0
-1701 -1714 0
-1701 -1715 0
-1701 -1716 0
-1701 -1717 0
-1701 -1718 0
-1701 -1719 0
-1701 -1720 0
-1701 -1721 0
-1701 -1722 0
-1701 -1723 0
-1701 -1724 0
-1701 -1725 0
-1701 -1726 0
-1702 -1703 0
-1702 -1704 0
-1702 -1705 0
-1702 -1706 0
-1702 -1707 0
-1702 -1708 0
-1702 -1709 0
-1702 -1710 0
-1702 -1711 0
-1702 -1712 0
-1702 -1713 0
-1702 -1714 0
-1702 -1715 0
-1702 -1716 0
-1702 -1717 0
-1702 -1718 0
-1702 -1719 0
-1702 -1720 0
-1702 -1721 0
-1702 -1722 0
-1702 -1723 0
-1702 -1724 0
-1702 -1725 0
-1702 -1726 0
-1703 -1704 0
-1703 -1705 0
-1703 -1706 0
-1703 -1707 0
-1703 -1708 0
-1703 -1709 0
-1703 -1710 0
-1703 -1711 0
-1703 -1712 0
-1703 -1713 0
-1703 -1714 0
-1703 -1715 0
-1703 -1716 0
-1703 -1717 0
-1703 -1718 0
-1703 -1719 0
-1703 -1720 0
-1703 -1721 0
-1703 -1722 0
-1703 -1723 0
-1703 -1724 0
-1703 -1725 0
-1703 -1726 0
-1704 -1705 0
-1704 -1706 0
-1704 -1707 0
-1704 -1708 0
-1704 -1709 0
-1704 -1710 0
-1704 -1711 0
-1704 -1712 0
-1704 -1713 0
-1704 -1714 0
-1704 -1715 0
-1704 -1716 0
-1704 -1717 0
-1704 -1718 0
-1704 -1719 0
-1704 -1720 0
-1704 -1721 0
-1704 -1722 0
-1704 -1723 0
-1704 -1724 0
-1704 -1725 0
-1704 -1726 0
-1705 -1706 0
-1705 -1707 0
-1705 -1708 0
-1705 -1709 0
-1705 -1710 0
-1705 -1711 0
-1705 -1712 0
-1705 -1713 0
-1705 -1714 0
-1705 -1715 0
-1705 -1716 0
-1705 -1717 0
-1705 -1718 0
-1705 -1719 0
-1705 -1720 0
-1705 -1721 0
-1705 -1722 0
-1705 -1723 0
-1705 -1724 0
-1705 -1725 0
-1705 -1726 0
-1706 -1707 0
-1706 -1708 0
-1706 -1709 0
-1706 -1710 0
-1706 -1711 0
-1706 -1712 0
-1706 -1713 0
-1706 -1714 0
-1706 -1715 0
-1706 -1716 0
-1706 -1717 0
-1706 -1718 0
-1706 -1719 0
-1706 -1720 0
-1706 -1721 0
-1706 -1722 0
-1706 -1723 0
-1706 -1724 0
-1706 -1725 0
-1706 -1726 0
-1707 -1708 0
-1707 -1709 0
-1707 -1710 0
-1707 -1711 0
-1707 -1712 0
-1707 -1713 0
-1707 -1714 0
-1707 -1715 0
-1707 -1716 0
-1707 -1717 0
-1707 -1718 0
-1707 -1719 0
-1707 -1720 0
-1707 -1721 0
-1707 -1722 0
-1707 -1723 0
-1707 -1724 0
-1707 -1725 0
-1707 -1726 0
-1708 -1709 0
-1708 -1710 0
-1708 -1711 0
-1708 -1712 0
-1708 -1713 0
-1708 -1714 0
-1708 -1715 0
-1708 -1716 0
-1708 -1717 0
-1708 -1718 0
-1708 -1719 0
-1708 -1720 0
-1708 -1721 0
-1708 -1722 0
-1708 -1723 0
-1708 -1724 0
-1708 -1725 0
-1708 -1726 0
-1709 -1710 0
-1709 -1711 0
-1709 -1712 0
-1709 -1713 0
-1709 -1714 0
-1709 -1715 0
-1709 -1716 0
-1709 -1717 0
-1709 -1718 0
-1709 -1719 0
-1709 -1720 0
-1709 -1721 0
-1709 -1722 0
-1709 -1723 0
-1709 -1724 0
-1709 -1725 0
-1709 -1726 0
-1710 -1711 0
-1710 -1712 0
-1710 -1713 0
-1710 -1714 0
-1710 -1715 0
-1710 -1716 0
-1710 -1717 0
-1710 -1718 0
-1710 -1719 0
-1710 -1720 0
-1710 -1721 0
-1710 -1722 0
-1710 -1723 0
-1710 -1724 0
-1710 -1725 0
-1710 -1726 0
-1711 -1712 0
-1711 -1713 0
-1711 -1714 0
-1711 -1715 0
-1711 -1716 0
-1711 -1717 0
-1711 -1718 0
-1711 -1719 0
-1711 -1720 0
-1711 -1721 0
-1711 -1722 0
-1711 -1723 0
-1711 -1724 0
-1711 -1725 0
-1711 -1726 0
-1712 -1713 0
-1712 -1714 0
-1712 -1715 0
-1712 -1716 0
-1712 -1717 0
-1712 -1718 0
-1712 -1719 0
-1712 -1720 0
-1712 -1721 0
-1712 -1722 0
-1712 -1723 0
-1712 -1724 0
-1712 -1725 0
-1712 -1726 0
-1713 -1714 0
-1713 -1715 0
-1713 -1716 0
-1713 -1717 0
-1713 -1718 0
-1713 -1719 0
-1713 -1720 0
-1713 -1721 0
-1713 -1722 0
-1713 -1723 0
-1713 -1724 0
-1713 -1725 0
-1713 -1726 0
-1714 -1715 0
-1714 -1716 0
-1714 -1717 0
-1714 -1718 0
-1714 -1719 0
-1714 -1720 0
-1714 -1721 0
-1714 -1722 0
-1714 -1723 0
-1714 -1724 0
-1714 -1725 0
-1714 -1726 0
-1715 -1716 0
-1715 -1717 0
-1715 -1718 0
-1715 -1719 0
-1715 -1720 0
-1715 -1721 0
-1715 -1722 0
-1715 -1723 0
-1715 -1724 0
-1715 -1725 0
-1715 -1726 0
-1716 -1717 0
-1716 -1718 0
-1716 -1719 0
-1716 -1720 0
-1716 -1721 0
-1716 -1722 0
-1716 -1723 0
-1716 -1724 0
-1716 -1725 0
-1716 -1726 0
-1717 -1718 0
-1717 -1719 0
-1717 -1720 0
-1717 -1721 0
-1717 -1722 0
-1717 -1723 0
-1717 -1724 0
-1717 -1725 0
-1717 -1726 0
-1718 -1719 0
-1718 -1720 0
-1718 -1721 0
-1718 -1722 0
-1718 -1723 0
-1718 -1724 0
-1718 -1725 0
-1718 -1726 0
-1719 -1720 0
-1719 -1721 0
-1719 -1722 0
-1719 -1723 0
-1719 -1724 0
-1719 -1725 0
-1719 -1726 0
-1720 -1721 0
-1720 -1722 0
-1720 -1723 0
-1720 -1724 0
-1720 -1725 0
-1720 -1726 0
-1721 -1722 0
-1721 -1723 0
-1721 -1724 0
-1721 -1725 0
-1721 -1726 0
-1722 -1723 0
-1722 -1724 0
-1722 -1725 0
-1722 -1726 0
-1723 -1724 0
-1723 -1725 0
-1723 -1726 0
-1724 -1725 0
-1724 -1726 0
-1725 -1726 0
-1616 45 1672 0
-1616 -45 1671 0
-1617 45 1673 0
-1617 -45 1672 0
-1618 45 1674 0
-1618 -45 1673 0
-1619 45 1675 0
-1619 -45 1674 0
-1620 45 1676 0
-1620 -45 1675 0
-1621 45 1677 0
-1621 -45 1676 0
-1622 45 1678 0
-1622 -45 1677 0
-1623 45 1679 0
-1623 -45 1678 0
-1624 45 1680 0
-1624 -45 1679 0
-1625 45 1681 0
-1625 -45 1680 0
-1626 45 1682 0
-1626 -45 1681 0
-1627 45 1683 0
-1627 -45 1682 0
-1628 45 1684 0
-1628 -45 1683 0
-1629 45 1685 0
-1629 -45 1684 0
-1630 45 1686 0
-1630 -45 1685 0
-1631 45 1687 0
-1631 -45 1686 0
-1632 45 1688 0
-1632 -45 1687 0
-1633 45 1689 0
-1633 -45 1688 0
-1634 45 1690 0
-1634 -45 1689 0
-1635 45 1691 0
-1635 -45 1690 0
-1636 45 1692 0
-1636 -45 1691 0
-1637 45 1693 0
-1637 -45 1692 0
-1638 45 1694 0
-1638 -45 1693 0
-1639 45 1695 0
-1639 -45 1694 0
-1640 45 1696 0
-1640 -45 1695 0
-1641 45 1697 0
-1641 -45 1696 0
-1642 45 1698 0
-1642 -45 1697 0
-1643 45 1699 0
-1643 -45 1698 0
-1644 45 1700 0
-1644 -45 1699 0
-1645 45 1701 0
-1645 -45 1700 0
-1646 45 1702 0
-1646 -45 1701 0
-1647 45 1703 0
-1647 -45 1702 0
-1648 45 1704 0
-1648 -45 1703 0
-1649 45 1705 0
-1649 -45 1704 0
-1650 45 1706 0
-1650 -45 1705 0
-1651 45 1707 0
-1651 -45 1706 0
-1652 45 1708 0
-1652 -45 1707 0
-1653 45 1709 0
-1653 -45 1708 0
-1654 45 1710 0
-1654 -45 1709 0
-1655 45 1711 0
-1655 -45 1710 0
-1656 45 1712 0
-1656 -45 1711 0
-1657 45 1713 0
-1657 -45 1712 0
-1658 45 1714 0
-1658 -45 1713 0
-1659 45 1715 0
-1659 -45 1714 0
-1660 45 1716 0
-1660 -45 1715 0
-1661 45 1717 0
-1661 -45 1716 0
-1662 45 1718 0
-1662 -45 1717 0
-1663 45 1719 0
-1663 -45 1718 0
-1664 45 1720 0
-1664 -45 1719 0
-1665 45 1721 0
-1665 -45 1720 0
-1666 45 1722 0
-1666 -45 1721 0
-1667 45 1723 0
-1667 -45 1722 0
-1668 45 1724 0
-1668 -45 1723 0
-1669 45 1725 0
-1669 -45 1724 0
-1670 45 1726 0
-1670 -45 1725 0
1727 1728 1729 1730 1731 1732 1733 1734 1735 1736 1737 1738 1739 1740 1741 1742 1743 1744 1745 1746 1747 1748 1749 1750 1751 1752 1753 1754 1755 1756 1757 1758 1759 1760 1761 1762 1763 1764 1765 1766 1767 1768 1769 1770 1771 1772 1773 1774 1775 1776 1777 1778 1779 1780 1781 1782 1783 0
-1727 -1728 0
-1727 -1729 0
-1727 -1730 0
-1727 -1731 0
-1727 -1732 0
-1727 -1733 0
-1727 -1734 0
-1727 -1735 0
-1727 -1736 0
-1727 -1737 0
-1727 -1738 0
-1727 -1739 0
-1727 -1740 0
-1727 -1741 0
-1727 -1742 0
-1727 -1743 0
-1727 -1744 0
-1727 -1745 0
-1727 -1746 0
-1727 -1747 0
-1727 -1748 0
-1727 -1749 0
-1727 -1750 0
-1727 -1751 0
-1727 -1752 0
-1727 -1753 0
-1727 -1754 0
-1727 -1755 0
-1727 -1756 0
-1727 -1757 0
-1727 -1758 0
-1727 -1759 0
-1727 -1760 0
-1727 -1761 0
-1727 -1762 0
-1727 -1763 0
-1727 -1764 0
-1727 -1765 0
-1727 -1766 0
-1727 -1767 0
-1727 -1768 0
-1727 -1769 0
-1727 -1770 0
-1727 -1771 0
-1727 -1772 0
-1727 -1773 0
-1727 -1774 0
-1727 -1775 0
-1727 -1776 0
-1727 -1777 0
-1727 -1778 0
-1727 -1779 0
-1727 -1780 0
-1727 -1781 0
-1727 -1782 0
-1727 -1783 0
-1728 -1729 0
-1728 -1730 0
-1728 -1731 0
-1728 -1732 0
-1728 -1733 0
-1728 -1734 0
-1728 -1735 0
-1728 -1736 0
-1728 -1737 0
-1728 -1738 0
-1728 -1739 0
-1728 -1740 0
-1728 -1741 0
-1728 -1742 0
-1728 -1743 0
-1728 -1744 0
-1728 -1745 0
-1728 -1746 0
-1728 -1747 0
-1728 -1748 0
-1728 -1749 0
-1728 -1750 0
-1728 -1751 0
-1728 -1752 0
-1728 -1753 0
-1728 -1754 0
-1728 -1755 0
-1728 -1756 0
-1728 -1757 0
-1728 -1758 0
-1728 -1759 0
-1728 -1760 0
-1728 -1761 0
-1728 -1762 0
-1728 -1763 0
-1728 -1764 0
-1728 -1765 0
-1728 -1766 0
-1728 -1767 0
-1728 -1768 0
-1728 -1769 0
-1728 -1770 0
-1728 -1771 0
-1728 -1772 0
-1728 -1773 0
-1728 -1774 0
-1728 -1775 0
-1728 -1776 0
-1728 -1777 0
-1728 -1778 0
-1728 -1779 0
-1728 -1780 0
-1728 -1781 0
-1728 -1782 0
-1728 -1783 0
-1729 -1730 0
-1729 -1731 0
-1729 -1732 0
-1729 -1733 0
-1729 -1734 0
-1729 -1735 0
-1729 -1736 0
-1729 -1737 0
-1729 -1738 0
-1729 -1739 0
-1729 -1740 0
-1729 -1741 0
-1729 -1742 0
-1729 -1743 0
-1729 -1744 0
-1729 -1745 0
-1729 -1746 0
-1729 -1747 0
-1729 -1748 0
-1729 -1749 0
-1729 -1750 0
-1729 -1751 0
-1729 -1752 0
-1729 -1753 0
-1729 -1754 0
-1729 -1755 0
-1729 -1756 0
-1729 -1757 0
-1729 -1758 0
-1729 -1759 0
-1729 -1760 0
-1729 -1761 0
-1729 -1762 0
-1729 -1763 0
-1729 -1764 0
-1729 -1765 0
-1729 -1766 0
-1729 -1767 0
-1729 -1768 0
-1729 -1769 0
-1729 -1770 0
-1729 -1771 0
-1729 -1772 0
-1729 -1773 0
-1729 -1774 0
-1729 -1775 0
-1729 -1776 0
-1729 -1777 0
-1729 -1778 0
-1729 -1779 0
-1729 -1780 0
-1729 -1781 0
-1729 -1782 0
-1729 -1783 0
-1730 -1731 0
-1730 -1732 0
-1730 -1733 0
-1730 -1734 0
-1730 -1735 0
-1730 -1736 0
-1730 -1737 0
-1730 -1738 0
-1730 -1739 0
-1730 -1740 0
-1730 -1741 0
-1730 -1742 0
-1730 -1743 0
-1730 -1744 0
-1730 -1745 0
-1730 -1746 0
-1730 -1747 0
-1730 -1748 0
-1730 -1749 0
-1730 -1750 0
-1730 -1751 0
-1730 -1752 0
-1730 -1753 0
-1730 -1754 0
-1730 -1755 0
-1730 -1756 0
-1730 -1757 0
-1730 -1758 0
-1730 -1759 0
-1730 -1760 0
-1730 -1761 0
-1730 -1762 0
-1730 -1763 0
-1730 -1764 0
-1730 -1765 0
-1730 -1766 0
-1730 -1767 0
-1730 -1768 0
-1730 -1769 0
-1730 -1770 0
-1730 -1771 0
-1730 -1772 0
-1730 -1773 0
-1730 -1774 0
-1730 -1775 0
-1730 -1776 0
-1730 -1777 0
-1730 -1778 0
-1730 -1779 0
-1730 -1780 0
-1730 -1781 0
-1730 -1782 0
-1730 -1783 0
-1731 -1732 0
-1731 -1733 0
-1731 -1734 0
-1731 -1735 0
-1731 -1736 0
-1731 -1737 0
-1731 -1738 0
-1731 -1739 0
-1731 -1740 0
-1731 -1741 0
-1731 -1742 0
-1731 -1743 0
-1731 -1744 0
-1731 -1745 0
-1731 -1746 0
-1731 -1747 0
-1731 -1748 0
-1731 -1749 0
-1731 -1750 0
-1731 -1751 0
-1731 -1752 0
-1731 -1753 0
-1731 -1754 0
-1731 -1755 0
-1731 -1756 0
-1731 -1757 0
-1731 -1758 0
-1731 -1759 0
-1731 -1760 0
-1731 -1761 0
-1731 -1762 0
-1731 -1763 0
-1731 -1764 0
-1731 -1765 0
-1731 -1766 0
-1731 -1767 0
-1731 -1768 0
-1731 -1769 0
-1731 -1770 0
-1731 -1771 0
-1731 -1772 0
-1731 -1773 0
-1731 -1774 0
-1731 -1775 0
-1731 -1776 0
-1731 -1777 0
-1731 -1778 0
-1731 -1779 0
-1731 -1780 0
-1731 -1781 0
-1731 -1782 0
-1731 -1783 0
-1732 -1733 0
-1732 -1734 0
-1732 -1735 0
-1732 -1736 0
-1732 -1737 0
-1732 -1738 0
-1732 -1739 0
-1732 -1740 0
-1732 -1741 0
-1732 -1742 0
-1732 -1743 0
-1732 -1744 0
-1732 -1745 0
-1732 -1746 0
-1732 -1747 0
-1732 -1748 0
-1732 -1749 0
-1732 -1750 0
-1732 -1751 0
-1732 -1752 0
-1732 -1753 0
-1732 -1754 0
-1732 -1755 0
-1732 -1756 0
-1732 -1757 0
-1732 -1758 0
-1732 -1759 0
-1732 -1760 0
-1732 -1761 0
-1732 -1762 0
-1732 -1763 0
-1732 -1764 0
-1732 -1765 0
-1732 -1766 0
-1732 -1767 0
-1732 -1768 0
-1732 -1769 0
-1732 -1770 0
-1732 -1771 0
-1732 -1772 0
-1732 -1773 0
-1732 -1774 0
-1732 -1775 0
-1732 -1776 0
-1732 -1777 0
-1732 -1778 0
-1732 -1779 0
-1732 -1780 0
-1732 -1781 0
-1732 -1782 0
-1732 -1783 0
-1733 -1734 0
-1733 -1735 0
-1733 -1736 0
-1733 -1737 0
-1733 -1738 0
-1733 -1739 0
-1733 -1740 0
-1733 -1741 0
-1733 -1742 0
-1733 -1743 0
-1733 -1744 0
-1733 -1745 0
-1733 -1746 0
-1733 -1747 0
-1733 -1748 0
-1733 -1749 0
-1733 -1750 0
-1733 -1751 0
-1733 -1752 0
-1733 -1753 0
-1733 -1754 0
-1733 -1755 0
-1733 -1756 0
-1733 -1757 0
-1733 -1758 0
-1733 -1759 0
-1733 -1760 0
-1733 -1761 0
-1733 -1762 0
-1733 -1763 0
-1733 -1764 0
-1733 -1765 0
-1733 -1766 0
-1733 -1767 0
-1733 -1768 0
-1733 -1769 0
-1733 -1770 0
-1733 -1771 0
-1733 -1772 0
-1733 -1773 0
-1733 -1774 0
-1733 -1775 0
-1733 -1776 0
-1733 -1777 0
-1733 -1778 0
-1733 -1779 0
-1733 -1780 0
-1733 -1781 0
-1733 -1782 0
-1733 -1783 0
-1734 -1735 0
-1734 -1736 0
-1734 -1737 0
-1734 -1738 0
-1734 -1739 0
-1734 -1740 0
-1734 -1741 0
-1734 -1742 0
-1734 -1743 0
-1734 -1744 0
-1734 -1745 0
-1734 -1746 0
-1734 -1747 0
-1734 -1748 0
-1734 -1749 0
-1734 -1750 0
-1734 -1751 0
-1734 -1752 0
-1734 -1753 0
-1734 -1754 0
-1734 -1755 0
-1734 -1756 0
-1734 -1757 0
-1734 -1758 0
-1734 -1759 0
-1734 -1760 0
-1734 -1761 0
-1734 -1762 0
-1734 -1763 0
-1734 -1764 0
-1734 -1765 0
-1734 -1766 0
-1734 -1767 0
-1734 -1768 0
-1734 -1769 0
-1734 -1770 0
-1734 -1771 0
-1734 -1772 0
-1734 -1773 0
-1734 -1774 0
-1734 -1775 0
-1734 -1776 0
-1734 -1777 0
-1734 -1778 0
-1734 -1779 0
-1734 -1780 0
-1734 -1781 0
-1734 -1782 0
-1734 -1783 0
-1735 -1736 0
-1735 -1737 0
-1735 -1738 0
-1735 -1739 0
-1735 -1740 0
-1735 -1741 0
-1735 -1742 0
-1735 -1743 0
-1735 -1744 0
-1735 -1745 0
-1735 -1746 0
-1735 -1747 0
-1735 -1748 0
-1735 -1749 0
-1735 -1750 0
-1735 -1751 0
-1735 -1752 0
-1735 -1753 0
-1735 -1754 0
-1735 -1755 0
-1735 -1756 0
-1735 -1757 0
-1735 -1758 0
-1735 -1759 0
-1735 -1760 0
-1735 -1761 0
-1735 -1762 0
-1735 -1763 0
-1735 -1764 0
-1735 -1765 0
-1735 -1766 0
-1735 -1767 0
-1735 -1768 0
-1735 -1769 0
-1735 -1770 0
-1735 -1771 0
-1735 -1772 0
-1735 -1773 0
-1735 -1774 0
-1735 -1775 0
-1735 -1776 0
-1735 -1777 0
-1735 -1778 0
-1735 -1779 0
-1735 -1780 0
-1735 -1781 0
-1735 -1782 0
-1735 -1783 0
-1736 -1737 0
-1736 -1738 0
-1736 -1739 0
-1736 -1740 0
-1736 -1741 0
-1736 -1742 0
-1736 -1743 0
-1736 -1744 0
-1736 -1745 0
-1736 -1746 0
-1736 -1747 0
-1736 -1748 0
-1736 -1749 0
-1736 -1750 0
-1736 -1751 0
-1736 -1752 0
-1736 -1753 0
-1736 -1754 0
-1736 -1755 0
-1736 -1756 0
-1736 -1757 0
-1736 -1758 0
-1736 -1759 0
-1736 -1760 0
-1736 -1761 0
-1736 -1762 0
-1736 -1763 0
-1736 -1764 0
-1736 -1765 0
-1736 -1766 0
-1736 -1767 0
-1736 -1768 0
-1736 -1769 0
-1736 -1770 0
-1736 -1771 0
-1736 -1772 0
-1736 -1773 0
-1736 -1774 0
-1736 -1775 0
-1736 -1776 0
-1736 -1777 0
-1736 -1778 0
-1736 -1779 0
-1736 -1780 0
-1736 -1781 0
-1736 -1782 0
-1736 -1783 0
-1737 -1738 0
-1737 -1739 0
-1737 -1740 0
-1737 -1741 0
-1737 -1742 0
-1737 -1743 0
-1737 -1744 0
-1737 -1745 0
-1737 -1746 0
-1737 -1747 0
-1737 -1748 0
-1737 -1749 0
-1737 -1750 0
-1737 -1751 0
-1737 -1752 0
-1737 -1753 0
-1737 -1754 0
-1737 -1755 0
-1737 -1756 0
-1737 -1757 0
-1737 -1758 0
-1737 -1759 0
-1737 -1760 0
-1737 -1761 0
-1737 -1762 0
-1737 -1763 0
-1737 -1764 0
-1737 -1765 0
-1737 -1766 0
-1737 -1767 0
-1737 -1768 0
-1737 -1769 0
-1737 -1770 0
-1737 -1771 0
-1737 -1772 0
-1737 -1773 0
-1737 -1774 0
-1737 -1775 0
-1737 -1776 0
-1737 -1777 0
-1737 -1778 0
-1737 -1779 0
-1737 -1780 0
-1737 -1781 0
-1737 -1782 0
-1737 -1783 0
-1738 -1739 0
-1738 -1740 0
-1738 -1741 0
-1738 -1742 0
-1738 -1743 0
-1738 -1744 0
-1738 -1745 0
-1738 -1746 0
-1738 -1747 0
-1738 -1748 0
-1738 -1749 0
-1738 -1750 0
-1738 -1751 0
-1738 -1752 0
-1738 -1753 0
-1738 -1754 0
-1738 -1755 0
-1738 -1756 0
-1738 -1757 0
-1738 -1758 0
-1738 -1759 0
-1738 -1760 0
-1738 -1761 0
-1738 -1762 0
-1738 -1763 0
-1738 -1764 0
-1738 -1765 0
-1738 -1766 0
-1738 -1767 0
-1738 -1768 0
-1738 -1769 0
-1738 -1770 0
-1738 -1771 0
-1738 -1772 0
-1738 -1773 0
-1738 -1774 0
-1738 -1775 0
-1738 -1776 0
-1738 -1777 0
-1738 -1778 0
-1738 -1779 0
-1738 -1780 0
-1738 -1781 0
-1738 -1782 0
-1738 -1783 0
-1739 -1740 0
-1739 -1741 0
-1739 -1742 0
-1739 -1743 0
-1739 -1744 0
-1739 -1745 0
-1739 -1746 0
-1739 -1747 0
-1739 -1748 0
-1739 -1749 0
-1739 -1750 0
-1739 -1751 0
-1739 -1752 0
-1739 -1753 0
-1739 -1754 0
-1739 -1755 0
-1739 -1756 0
-1739 -1757 0
-1739 -1758 0
-1739 -1759 0
-1739 -1760 0
-1739 -1761 0
-1739 -1762 0
-1739 -1763 0
-1739 -1764 0
-1739 -1765 0
-1739 -1766 0
-1739 -1767 0
-1739 -1768 0
-1739 -1769 0
-1739 -1770 0
-1739 -1771 0
-1739 -1772 0
-1739 -1773 0
-1739 -1774 0
-1739 -1775 0
-1739 -1776 0
-1739 -1777 0
-1739 -1778 0
-1739 -1779 0
-1739 -1780 0
-1739 -1781 0
-1739 -1782 0
-1739 -1783 0
-1740 -1741 0
-1740 -1742 0
-1740 -1743 0
-1740 -1744 0
-1740 -1745 0
-1740 -1746 0
-1740 -1747 0
-1740 -1748 0
-1740 -1749 0
-1740 -1750 0
-1740 -1751 0
-1740 -1752 0
-1740 -1753 0
-1740 -1754 0
-1740 -1755 0
-1740 -1756 0
-1740 -1757 0
-1740 -1758 0
-1740 -1759 0
-1740 -1760 0
-1740 -1761 0
-1740 -1762 0
-1740 -1763 0
-1740 -1764 0
-1740 -1765 0
-1740 -1766 0
-1740 -1767 0
-1740 -1768 0
-1740 -1769 0
-1740 -1770 0
-1740 -1771 0
-1740 -1772 0
-1740 -1773 0
-1740 -1774 0
-1740 -1775 0
-1740 -1776 0
-1740 -1777 0
-1740 -1778 0
-1740 -1779 0
-1740 -1780 0
-1740 -1781 0
-1740 -1782 0
-1740 -1783 0
-1741 -1742 0
-1741 -1743 0
-1741 -1744 0
-1741 -1745 0
-1741 -1746 0
-1741 -1747 0
-1741 -1748 0
-1741 -1749 0
-1741 -1750 0
-1741 -1751 0
-1741 -1752 0
-1741 -1753 0
-1741 -1754 0
-1741 -1755 0
-1741 -1756 0
-1741 -1757 0
-1741 -1758 0
-1741 -1759 0
-1741 -1760 0
-1741 -1761 0
-1741 -1762 0
-1741 -1763 0
-1741 -1764 0
-1741 -1765 0
-1741 -1766 0
-1741 -1767 0
-1741 -1768 0
-1741 -1769 0
-1741 -1770 0
-1741 -1771 0
-1741 -1772 0
-1741 -1773 0
-1741 -1774 0
-1741 -1775 0
-1741 -1776 0
-1741 -1777 0
-1741 -1778 0
-1741 -1779 0
-1741 -1780 0
-1741 -1781 0
-1741 -1782 0
-1741 -1783 0
-1742 -1743 0
-1742 -1744 0
-1742 -1745 0
-1742 -1746 0
-1742 -1747 0
-1742 -1748 0
-1742 -1749 0
-1742 -1750 0
-1742 -1751 0
-1742 -1752 0
-1742 -1753 0
-1742 -1754 0
-1742 -1755 0
-1742 -1756 0
-1742 -1757 0
-1742 -1758 0
-1742 -1759 0
-1742 -1760 0
-1742 -1761 0
-1742 -1762 0
-1742 -1763 0
-1742 -1764 0
-1742 -1765 0
-1742 -1766 0
-1742 -1767 0
-1742 -1768 0
-1742 -1769 0
-1742 -1770 0
-1742 -1771 0
-1742 -1772 0
-1742 -1773 0
-1742 -1774 0
-1742 -1775 0
-1742 -1776 0
-1742 -1777 0
-1742 -1778 0
-1742 -1779 0
-1742 -1780 0
-1742 -1781 0
-1742 -1782 0
-1742 -1783 0
-1743 -1744 0
-1743 -1745 0
-1743 -1746 0
-1743 -1747 0
-1743 -1748 0
-1743 -1749 0
-1743 -1750 0
-1743 -1751 0
-1743 -1752 0
-1743 -1753 0
-1743 -1754 0
-1743 -1755 0
-1743 -1756 0
-1743 -1757 0
-1743 -1758 0
-1743 -1759 0
-1743 -1760 0
-1743 -1761 0
-1743 -1762 0
-1743 -1763 0
-1743 -1764 0
-1743 -1765 0
-1743 -1766 0
-1743 -1767 0
-1743 -1768 0
-1743 -1769 0
-1743 -1770 0
-1743 -1771 0
-1743 -1772 0
-1743 -1773 0
-1743 -1774 0
-1743 -1775 0
-1743 -1776 0
-1743 -1777 0
-1743 -1778 0
-1743 -1779 0
-1743 -1780 0
-1743 -1781 0
-1743 -1782 0
-1743 -1783 0
-1744 -1745 0
-1744 -1746 0
-1744 -1747 0
-1744 -1748 0
-1744 -1749 0
-1744 -1750 0
-1744 -1751 0
-1744 -1752 0
-1744 -1753 0
-1744 -1754 0
-1744 -1755 0
-1744 -1756 0
-1744 -1757 0
-1744 -1758 0
-1744 -1759 0
-1744 -1760 0
-1744 -1761 0
-1744 -1762 0
-1744 -1763 0
-1744 -1764 0
-1744 -1765 0
-1744 -1766 0
-1744 -1767 0
-1744 -1768 0
-1744 -1769 0
-1744 -1770 0
-1744 -1771 0
-1744 -1772 0
-1744 -1773 0
-1744 -1774 0
-1744 -1775 0
-1744 -1776 0
-1744 -1777 0
-1744 -1778 0
-1744 -1779 0
-1744 -1780 0
-1744 -1781 0
-1744 -1782 0
-1744 -1783 0
-1745 -1746 0
-1745 -1747 0
-1745 -1748 0
-1745 -1749 0
-1745 -1750 0
-1745 -1751 0
-1745 -1752 0
-1745 -1753 0
-1745 -1754 0
-1745 -1755 0
-1745 -1756 0
-1745 -1757 0
-1745 -1758 0
-1745 -1759 0
-1745 -1760 0
-1745 -1761 0
-1745 -1762 0
-1745 -1763 0
-1745 -1764 0
-1745 -1765 0
-1745 -1766 0
-1745 -1767 0
-1745 -1768 0
-1745 -1769 0
-1745 -1770 0
-1745 -1771 0
-1745 -1772 0
-1745 -1773 0
-1745 -1774 0
-1745 -1775 0
-1745 -1776 0
-1745 -1777 0
-1745 -1778 0
-1745 -1779 0
-1745 -1780 0
-1745 -1781 0
-1745 -1782 0
-1745 -1783 0
-1746 -1747 0
-1746 -1748 0
-1746 -1749 0
-1746 -1750 0
-1746 -1751 0
-1746 -1752 0
-1746 -1753 0
-1746 -1754 0
-1746 -1755 0
-1746 -1756 0
-1746 -1757 0
-1746 -1758 0
-1746 -1759 0
-1746 -1760 0
-1746 -1761 0
-1746 -1762 0
-1746 -1763 0
-1746 -1764 0
-1746 -1765 0
-1746 -1766 0
-1746 -1767 0
-1746 -1768 0
-1746 -1769 0
-1746 -1770 0
-1746 -1771 0
-1746 -1772 0
-1746 -1773 0
-1746 -1774 0
-1746 -1775 0
-1746 -1776 0
-1746 -1777 0
-1746 -1778 0
-1746 -1779 0
-1746 -1780 0
-1746 -1781 0
-1746 -1782 0
-1746 -1783 0
-1747 -1748 0
-1747 -1749 0
-1747 -1750 0
-1747 -1751 0
-1747 -1752 0
-1747 -1753 0
-1747 -1754 0
-1747 -1755 0
-1747 -1756 0
-1747 -1757 0
-1747 -1758 0
-1747 -1759 0
-1747 -1760 0
-1747 -1761 0
-1747 -1762 0
-1747 -1763 0
-1747 -1764 0
-1747 -1765 0
-1747 -1766 0
-1747 -1767 0
-1747 -1768 0
-1747 -1769 0
-1747 -1770 0
-1747 -1771 0
-1747 -1772 0
-1747 -1773 0
-1747 -1774 0
-1747 -1775 0
-1747 -1776 0
-1747 -1777 0
-1747 -1778 0
-1747 -1779 0
-1747 -1780 0
-1747 -1781 0
-1747 -1782 0
-1747 -1783 0
-1748 -1749 0
-1748 -1750 0
-1748 -1751 0
-1748 -1752 0
-1748 -1753 0
-1748 -1754 0
-1748 -1755 0
-1748 -1756 0
-1748 -1757 0
-1748 -1758 0
-1748 -1759 0
-1748 -1760 0
-1748 -1761 0
-1748 -1762 0
-1748 -1763 0
-1748 -1764 0
-1748 -1765 0
-1748 -1766 0
-1748 -1767 0
-1748 -1768 0
-1748 -1769 0
-1748 -1770 0
-1748 -1771 0
-1748 -1772 0
-1748 -1773 0
-1748 -1774 0
-1748 -1775 0
-1748 -1776 0
-1748 -1777 0
-1748 -1778 0
-1748 -1779 0
-1748 -1780 0
-1748 -1781 0
-1748 -1782 0
-1748 -1783 0
-1749 -1750 0
-1749 -1751 0
-1749 -1752 0
-1749 -1753 0
-1749 -1754 0
-1749 -1755 0
-1749 -1756 0
-1749 -1757 0
-1749 -1758 0
-1749 -1759 0
-1749 -1760 0
-1749 -1761 0
-1749 -1762 0
-1749 -1763 0
-1749 -1764 0
-1749 -1765 0
-1749 -1766 0
-1749 -1767 0
-1749 -1768 0
-1749 -1769 0
-1749 -1770 0
-1749 -1771 0
-1749 -1772 0
-1749 -1773 0
-1749 -1774 0
-1749 -1775 0
-1749 -1776 0
-1749 -1777 0
-1749 -1778 0
-1749 -1779 0
-1749 -1780 0
-1749 -1781 0
-1749 -1782 0
-1749 -1783 0
-1750 -1751 0
-1750 -1752 0
-1750 -1753 0
-1750 -1754 0
-1750 -1755 0
-1750 -1756 0
-1750 -1757 0
-1750 -1758 0
-1750 -1759 0
-1750 -1760 0
-1750 -1761 0
-1750 -1762 0
-1750 -1763 0
-1750 -1764 0
-1750 -1765 0
-1750 -1766 0
-1750 -1767 0
-1750 -1768 0
-1750 -1769 0
-1750 -1770 0
-1750 -1771 0
-1750 -1772 0
-1750 -1773 0
-1750 -1774 0
-1750 -1775 0
-1750 -1776 0
-1750 -1777 0
-1750 -1778 0
-1750 -1779 0
-1750 -1780 0
-1750 -1781 0
-1750 -1782 0
-1750 -1783 0
-1751 -1752 0
-1751 -1753 0
-1751 -1754 0
-1751 -1755 0
-1751 -1756 0
-1751 -1757 0
-1751 -1758 0
-1751 -1759 0
-1751 -1760 0
-1751 -1761 0
-1751 -1762 0
-1751 -1763 0
-1751 -1764 0
-1751 -1765 0
-1751 -1766 0
-1751 -1767 0
-1751 -1768 0
-1751 -1769 0
-1751 -1770 0
-1751 -1771 0
-1751 -1772 0
-1751 -1773 0
-1751 -1774 0
-1751 -1775 0
-1751 -1776 0
-1751 -1777 0
-1751 -1778 0
-1751 -1779 0
-1751 -1780 0
-1751 -1781 0
-1751 -1782 0
-1751 -1783 0
-1752 -1753 0
-1752 -1754 0
-1752 -1755 0
-1752 -1756 0
-1752 -1757 0
-1752 -1758 0
-1752 -1759 0
-1752 -1760 0
-1752 -1761 0
-1752 -1762 0
-1752 -1763 0
-1752 -1764 0
-1752 -1765 0
-1752 -1766 0
-1752 -1767 0
-1752 -1768 0
-1752 -1769 0
-1752 -1770 0
-1752 -1771 0
-1752 -1772 0
-1752 -1773 0
-1752 -1774 0
-1752 -1775 0
-1752 -1776 0
-1752 -1777 0
-1752 -1778 0
-1752 -1779 0
-1752 -1780 0
-1752 -1781 0
-1752 -1782 0
-1752 -1783 0
-1753 -1754 0
-1753 -1755 0
-1753 -1756 0
-1753 -1757 0
-1753 -1758 0
-1753 -1759 0
-1753 -1760 0
-1753 -1761 0
-1753 -1762 0
-1753 -1763 0
-1753 -1764 0
-1753 -1765 0
-1753 -1766 0
-1753 -1767 0
-1753 -1768 0
-1753 -1769 0
-1753 -1770 0
-1753 -1771 0
-1753 -1772 0
-1753 -1773 0
-1753 -1774 0
-1753 -1775 0
-1753 -1776 0
-1753 -1777 0
-1753 -1778 0
-1753 -1779 0
-1753 -1780 0
-1753 -1781 0
-1753 -1782 0
-1753 -1783 0
-1754 -1755 0
-1754 -1756 0
-1754 -1757 0
-1754 -1758 0
-1754 -1759 0
-1754 -1760 0
-1754 -1761 0
-1754 -1762 0
-1754 -1763 0
-1754 -1764 0
-1754 -1765 0
-1754 -1766 0
-1754 -1767 0
-1754 -1768 0
-1754 -1769 0
-1754 -1770 0
-1754 -1771 0
-1754 -1772 0
-1754 -1773 0
-1754 -1774 0
-1754 -1775 0
-1754 -1776 0
-1754 -1777 0
-1754 -1778 0
-1754 -1779 0
-1754 -1780 0
-1754 -1781 0
-1754 -1782 0
-1754 -1783 0
-1755 -1756 0
-1755 -1757 0
-1755 -1758 0
-1755 -1759 0
-1755 -1760 0
-1755 -1761 0
-1755 -1762 0
-1755 -1763 0
-1755 -1764 0
-1755 -1765 0
-1755 -1766 0
-1755 -1767 0
-1755 -1768 0
-1755 -1769 0
-1755 -1770 0
-1755 -1771 0
-1755 -1772 0
-1755 -1773 0
-1755 -1774 0
-1755 -1775 0
-1755 -1776 0
-1755 -1777 0
-1755 -1778 0
-1755 -1779 0
-1755 -1780 0
-1755 -1781 0
-1755 -1782 0
-1755 -1783 0
-1756 -1757 0
-1756 -1758 0
-1756 -1759 0
-1756 -1760 0
-1756 -1761 0
-1756 -1762 0
-1756 -1763 0
-1756 -1764 0
-1756 -1765 0
-1756 -1766 0
-1756 -1767 0
-1756 -1768 0
-1756 -1769 0
-1756 -1770 0
-1756 -1771 0
-1756 -1772 0
-1756 -1773 0
-1756 -1774 0
-1756 -1775 0
-1756 -1776 0
-1756 -1777 0
-1756 -1778 0
-1756 -1779 0
-1756 -1780 0
-1756 -1781 0
-1756 -1782 0
-1756 -1783 0
-1757 -1758 0
-1757 -1759 0
-1757 -1760 0
-1757 -1761 0
-1757 -1762 0
-1757 -1763 0
-1757 -1764 0
-1757 -1765 0
-1757 -1766 0
-1757 -1767 0
-1757 -1768 0
-1757 -1769 0
-1757 -1770 0
-1757 -1771 0
-1757 -1772 0
-1757 -1773 0
-1757 -1774 0
-1757 -1775 0
-1757 -1776 0
-1757 -1777 0
-1757 -1778 0
-1757 -1779 0
-1757 -1780 0
-1757 -1781 0
-1757 -1782 0
-1757 -1783 0
-1758 -1759 0
-1758 -1760 0
-1758 -1761 0
-1758 -1762 0
-1758 -1763 0
-1758 -1764 0
-1758 -1765 0
-1758 -1766 0
-1758 -1767 0
-1758 -1768 0
-1758 -1769 0
-1758 -1770 0
-1758 -1771 0
-1758 -1772 0
-1758 -1773 0
-1758 -1774 0
-1758 -1775 0
-1758 -1776 0
-1758 -1777 0
-1758 -1778 0
-1758 -1779 0
-1758 -1780 0
-1758 -1781 0
-1758 -1782 0
-1758 -1783 0
-1759 -1760 0
-1759 -1761 0
-1759 -1762 0
-1759 -1763 0
-1759 -1764 0
-1759 -1765 0
-1759 -1766 0
-1759 -1767 0
-1759 -1768 0
-1759 -1769 0
-1759 -1770 0
-1759 -1771 0
-1759 -1772 0
-1759 -1773 0
-1759 -1774 0
-1759 -1775 0
-1759 -1776 0
-1759 -1777 0
-1759 -1778 0
-1759 -1779 0
-1759 -1780 0
-1759 -1781 0
-1759 -1782 0
-1759 -1783 0
-1760 -1761 0
-1760 -1762 0
-1760 -1763 0
-1760 -1764 0
-1760 -1765 0
-1760 -1766 0
-1760 -1767 0
-1760 -1768 0
-1760 -1769 0
-1760 -1770 0
-1760 -1771 0
-1760 -1772 0
-1760 -1773 0
-1760 -1774 0
-1760 -1775 0
-1760 -1776 0
-1760 -1777 0
-1760 -1778 0
-1760 -1779 0
-1760 -1780 0
-1760 -1781 0
-1760 -1782 0
-1760 -1783 0
-1761 -1762 0
-1761 -1763 0
-1761 -1764 0
-1761 -1765 0
-1761 -1766 0
-1761 -1767 0
-1761 -1768 0
-1761 -1769 0
-1761 -1770 0
-1761 -1771 0
-1761 -1772 0
-1761 -1773 0
-1761 -1774 0
-1761 -1775 0
-1761 -1776 0
-1761 -1777 0
-1761 -1778 0
-1761 -1779 0
-1761 -1780 0
-1761 -1781 0
-1761 -1782 0
-1761 -1783 0
-1762 -1763 0
-1762 -1764 0
-1762 -1765 0
-1762 -1766 0
-1762 -1767 0
-1762 -1768 0
-1762 -1769 0
-1762 -1770 0
-1762 -1771 0
-1762 -1772 0
-1762 -1773 0
-1762 -1774 0
-1762 -1775 0
-1762 -1776 0
-1762 -1777 0
-1762 -1778 0
-1762 -1779 0
-1762 -1780 0
-1762 -1781 0
-1762 -1782 0
-1762 -1783 0
-1763 -1764 0
-1763 -1765 0
-1763 -1766 0
-1763 -1767 0
-1763 -1768 0
-1763 -1769 0
-1763 -1770 0
-1763 -1771 0
-1763 -1772 0
-1763 -1773 0
-1763 -1774 0
-1763 -1775 0
-1763 -1776 0
-1763 -1777 0
-1763 -1778 0
-1763 -1779 0
-1763 -1780 0
-1763 -1781 0
-1763 -1782 0
-1763 -1783 0
-1764 -1765 0
-1764 -1766 0
-1764 -1767 0
-1764 -1768 0
-1764 -1769 0
-1764 -1770 0
-1764 -1771 0
-1764 -1772 0
-1764 -1773 0
-1764 -1774 0
-1764 -1775 0
-1764 -1776 0
-1764 -1777 0
-1764 -1778 0
-1764 -1779 0
-1764 -1780 0
-1764 -1781 0
-1764 -1782 0
-1764 -1783 0
-1765 -1766 0
-1765 -1767 0
-1765 -1768 0
-1765 -1769 0
-1765 -1770 0
-1765 -1771 0
-1765 -1772 0
-1765 -1773 0
-1765 -1774 0
-1765 -1775 0
-1765 -1776 0
-1765 -1777 0
-1765 -1778 0
-1765 -1779 0
-1765 -1780 0
-1765 -1781 0
-1765 -1782 0
-1765 -1783 0
-1766 -1767 0
-1766 -1768 0
-1766 -1769 0
-1766 -1770 0
-1766 -1771 0
-1766 -1772 0
-1766 -1773 0
-1766 -1774 0
-1766 -1775 0
-1766 -1776 0
-1766 -1777 0
-1766 -1778 0
-1766 -1779 0
-1766 -1780 0
-1766 -1781 0
-1766 -1782 0
-1766 -1783 0
-1767 -1768 0
-1767 -1769 0
-1767 -1770 0
-1767 -1771 0
-1767 -1772 0
-1767 -1773 0
-1767 -1774 0
-1767 -1775 0
-1767 -1776 0
-1767 -1777 0
-1767 -1778 0
-1767 -1779 0
-1767 -1780 0
-1767 -1781 0
-1767 -1782 0
-1767 -1783 0
-1768 -1769 0
-1768 -1770 0
-1768 -1771 0
-1768 -1772 0
-1768 -1773 0
-1768 -1774 0
-1768 -1775 0
-1768 -1776 0
-1768 -1777 0
-1768 -1778 0
-1768 -1779 0
-1768 -1780 0
-1768 -1781 0
-1768 -1782 0
-1768 -1783 0
-1769 -1770 0
-1769 -1771 0
-1769 -1772 0
-1769 -1773 0
-1769 -1774 0
-1769 -1775 0
-1769 -1776 0
-1769 -1777 0
-1769 -1778 0
-1769 -1779 0
-1769 -1780 0
-1769 -1781 0
-1769 -1782 0
-1769 -1783 0
-1770 -1771 0
-1770 -1772 0
-1770 -1773 0
-1770 -1774 0
-1770 -1775 0
-1770 -1776 0
-1770 -1777 0
-1770 -1778 0
-1770 -1779 0
-1770 -1780 0
-1770 -1781 0
-1770 -1782 0
-1770 -1783 0
-1771 -1772 0
-1771 -1773 0
-1771 -1774 0
-1771 -1775 0
-1771 -1776 0
-1771 -1777 0
-1771 -1778 0
-1771 -1779 0
-1771 -1780 0
-1771 -1781 0
-1771 -1782 0
-1771 -1783 0
-1772 -1773 0
-1772 -1774 0
-1772 -1775 0
-1772 -1776 0
-1772 -1777 0
-1772 -1778 0
-1772 -1779 0
-1772 -1780 0
-1772 -1781 0
-1772 -1782 0
-1772 -1783 0
-1773 -1774 0
-1773 -1775 0
-1773 -1776 0
-1773 -1777 0
-1773 -1778 0
-1773 -1779 0
-1773 -1780 0
-1773 -1781 0
-1773 -1782 0
-1773 -1783 0
-1774 -1775 0
-1774 -1776 0
-1774 -1777 0
-1774 -1778 0
-1774 -1779 0
-1774 -1780 0
-1774 -1781 0
-1774 -1782 0
-1774 -1783 0
-1775 -1776 0
-1775 -1777 0
-1775 -1778 0
-1775 -1779 0
-1775 -1780 0
-1775 -1781 0
-1775 -1782 0
-1775 -1783 0
-1776 -1777 0
-1776 -1778 0
-1776 -1779 0
-1776 -1780 0
-1776 -1781 0
-1776 -1782 0
-1776 -1783 0
-1777 -1778 0
-1777 -1779 0
-1777 -1780 0
-1777 -1781 0
-1777 -1782 0
-1777 -1783 0
-1778 -1779 0
-1778 -1780 0
-1778 -1781 0
-1778 -1782 0
-1778 -1783 0
-1779 -1780 0
-1779 -1781 0
-1779 -1782 0
-1779 -1783 0
-1780 -1781 0
-1780 -1782 0
-1780 -1783 0
-1781 -1782 0
-1781 -1783 0
-1782 -1783 0
-1671 48 1728 0
-1671 -48 1727 0
-1672 48 1729 0
-1672 -48 1728 0
-1673 48 1730 0
-1673 -48 1729 0
-1674 48 1731 0
-1674 -48 1730 0
-1675 48 1732 0
-1675 -48 1731 0
-1676 48 1733 0
-1676 -48 1732 0
-1677 48 1734 0
-1677 -48 1733 0
-1678 48 1735 0
-1678 -48 1734 0
-1679 48 1736 0
-1679 -48 1735 0
-1680 48 1737 0
-1680 -48 1736 0
-1681 48 1738 0
-1681 -48 1737 0
-1682 48 1739 0
-1682 -48 1738 0
-1683 48 1740 0
-1683 -48 1739 0
-1684 48 1741 0
-1684 -48 1740 0
-1685 48 1742 0
-1685 -48 1741 0
-1686 48 1743 0
-1686 -48 1742 0
-1687 48 1744 0
-1687 -48 1743 0
-1688 48 1745 0
-1688 -48 1744 0
-1689 48 1746 0
-1689 -48 1745 0
-1690 48 1747 0
-1690 -48 1746 0
-1691 48 1748 0
-1691 -48 1747 0
-1692 48 1749 0
-1692 -48 1748 0
-1693 48 1750 0
-1693 -48 1749 0
-1694 48 1751 0
-1694 -48 1750 0
-1695 48 1752 0
-1695 -48 1751 0
-1696 48 1753 0
-1696 -48 1752 0
-1697 48 1754 0
-1697 -48 1753 0
-1698 48 1755 0
-1698 -48 1754 0
-1699 48 1756 0
-1699 -48 1755 0
-1700 48 1757 0
-1700 -48 1756 0
-1701 48 1758 0
-1701 -48 1757 0
-1702 48 1759 0
-1702 -48 1758 0
-1703 48 1760 0
-1703 -48 1759 0
-1704 48 1761 0
-1704 -48 1760 0
-1705 48 1762 0
-1705 -48 1761 0
-1706 48 1763 0
-1706 -48 1762 0
-1707 48 1764 0
-1707 -48 1763 0
-1708 48 1765 0
-1708 -48 1764 0
-1709 48 1766 0
-1709 -48 1765 0
-1710 48 1767 0
-1710 -48 1766 0
-1711 48 1768 0
-1711 -48 1767 0
-1712 48 1769 0
-1712 -48 1768 0
-1713 48 1770 0
-1713 -48 1769 0
-1714 48 1771 0
-1714 -48 1770 0
-1715 48 1772 0
-1715 -48 1771 0
-1716 48 1773 0
-1716 -48 1772 0
-1717 48 1774 0
-1717 -48 1773 0
-1718 48 1775 0
-1718 -48 1774 0
-1719 48 1776 0
-1719 -48 1775 0
-1720 48 1777 0
-1720 -48 1776 0
-1721 48 1778 0
-1721 -48 1777 0
-1722 48 1779 0
-1722 -48 1778 0
-1723 48 1780 0
-1723 -48 1779 0
-1724 48 1781 0
-1724 -48 1780 0
-1725 48 1782 0
-1725 -48 1781 0
-1726 48 1783 0
-1726 -48 1782 0
1784 1785 1786 1787 1788 1789 1790 1791 1792 1793 1794 1795 1796 1797 1798 1799 1800 1801 1802 1803 1804 1805 1806 1807 1808 1809 1810 1811 1812 1813 1814 1815 1816 1817 1818 1819 1820 1821 1822 1823 1824 1825 1826 1827 1828 1829 1830 1831 1832 1833 1834 1835 1836 1837 1838 1839 1840 1841 0
-1784 -1785 0
-1784 -1786 0
-1784 -1787 0
-1784 -1788 0
-1784 -1789 0
-1784 -1790 0
-1784 -1791 0
-1784 -1792 0
-1784 -1793 0
-1784 -1794 0
-1784 -1795 0
-1784 -1796 0
-1784 -1797 0
-1784 -1798 0
-1784 -1799 0
-1784 -1800 0
-1784 -1801 0
-1784 -1802 0
-1784 -1803 0
-1784 -1804 0
-1784 -1805 0
-1784 -1806 0
-1784 -1807 0
-1784 -1808 0
-1784 -1809 0
-1784 -1810 0
-1784 -1811 0
-1784 -1812 0
-1784 -1813 0
-1784 -1814 0
-1784 -1815 0
-1784 -1816 0
-1784 -1817 0
-1784 -1818 0
-1784 -1819 0
-1784 -1820 0
-1784 -1821 0
-1784 -1822 0
-1784 -1823 0
-1784 -1824 0
-1784 -1825 0
-1784 -1826 0
-1784 -1827 0
-1784 -1828 0
-1784 -1829 0
-1784 -1830 0
-1784 -1831 0
-1784 -1832 0
-1784 -1833 0
-1784 -1834 0
-1784 -1835 0
-1784 -1836 0
-1784 -1837 0
-1784 -1838 0
-1784 -1839 0
-1784 -1840 0
-1784 -1841 0
-1785 -1786 0
-1785 -1787 0
-1785 -1788 0
-1785 -1789 0
-1785 -1790 0
-1785 -1791 0
-1785 -1792 0
-1785 -1793 0
-1785 -1794 0
-1785 -1795 0
-1785 -1796 0
-1785 -1797 0
-1785 -1798 0
-1785 -1799 0
-1785 -1800 0
-1785 -1801 0
-1785 -1802 0
-1785 -1803 0
-1785 -1804 0
-1785 -1805 0
-1785 -1806 0
-1785 -1807 0
-1785 -1808 0
-1785 -1809 0
-1785 -1810 0
-1785 -1811 0
-1785 -1812 0
-1785 -1813 0
-1785 -1814 0
-1785 -1815 0
-1785 -1816 0
-1785 -1817 0
-1785 -1818 0
-1785 -1819 0
-1785 -1820 0
-1785 -1821 0
-1785 -1822 0
-1785 -1823 0
-1785 -1824 0
-1785 -1825 0
-1785 -1826 0
-1785 -1827 0
-1785 -1828 0
-1785 -1829 0
-1785 -1830 0
-1785 -1831 0
-1785 -1832 0
-1785 -1833 0
-1785 -1834 0
-1785 -1835 0
-1785 -1836 0
-1785 -1837 0
-1785 -1838 0
-1785 -1839 0
-1785 -1840 0
-1785 -1841 0
-1786 -1787 0
-1786 -1788 0
-1786 -1789 0
-1786 -1790 0
-1786 -1791 0
-1786 -1792 0
-1786 -1793 0
-1786 -1794 0
-1786 -1795 0
-1786 -1796 0
-1786 -1797 0
-1786 -1798 0
-1786 -1799 0
-1786 -1800 0
-1786 -1801 0
-1786 -1802 0
-1786 -1803 0
-1786 -1804 0
-1786 -1805 0
-1786 -1806 0
-1786 -1807 0
-1786 -1808 0
-1786 -1809 0
-1786 -1810 0
-1786 -1811 0
-1786 -1812 0
-1786 -1813 0
-1786 -1814 0
-1786 -1815 0
-1786 -1816 0
-1786 -1817 0
-1786 -1818 0
-1786 -1819 0
-1786 -1820 0
-1786 -1821 0
-1786 -1822 0
-1786 -1823 0
-1786 -1824 0
-1786 -1825 0
-1786 -1826 0
-1786 -1827 0
-1786 -1828 0
-1786 -1829 0
-1786 -1830 0
-1786 -1831 0
-1786 -1832 0
-1786 -1833 0
-1786 -1834 0
-1786 -1835 0
-1786 -1836 0
-1786 -1837 0
-1786 -1838 0
-1786 -1839 0
-1786 -1840 0
-1786 -1841 0
-1787 -1788 0
-1787 -1789 0
-1787 -1790 0
-1787 -1791 0
-1787 -1792 0
-1787 -1793 0
-1787 -1794 0
-1787 -1795 0
-1787 -1796 0
-1787 -1797 0
-1787 -1798 0
-1787 -1799 0
-1787 -1800 0
-1787 -1801 0
-1787 -1802 0
-1787 -1803 0
-1787 -1804 0
-1787 -1805 0
-1787 -1806 0
-1787 -1807 0
-1787 -1808 0
-1787 -1809 0
-1787 -1810 0
-1787 -1811 0
-1787 -1812 0
-1787 -1813 0
-1787 -1814 0
-1787 -1815 0
-1787 -1816 0
-1787 -1817 0
-1787 -1818 0
-1787 -1819 0
-1787 -1820 0
-1787 -1821 0
-1787 -1822 0
-1787 -1823 0
-1787 -1824 0
-1787 -1825 0
-1787 -1826 0
-1787 -1827 0
-1787 -1828 0
-1787 -1829 0
-1787 -1830 0
-1787 -1831 0
-1787 -1832 0
-1787 -1833 0
-1787 -1834 0
-1787 -1835 0
-1787 -1836 0
-1787 -1837 0
-1787 -1838 0
-1787 -1839 0
-1787 -1840 0
-1787 -1841 0
-1788 -1789 0
-1788 -1790 0
-1788 -1791 0
-1788 -1792 0
-1788 -1793 0
-1788 -1794 0
-1788 -1795 0
-1788 -1796 0
-1788 -1797 0
-1788 -1798 0
-1788 -1799 0
-1788 -1800 0
-1788 -1801 0
-1788 -1802 0
-1788 -1803 0
-1788 -1804 0
-1788 -1805 0
-1788 -1806 0
-1788 -1807 0
-1788 -1808 0
-1788 -1809 0
-1788 -1810 0
-1788 -1811 0
-1788 -1812 0
-1788 -1813 0
-1788 -1814 0
-1788 -1815 0
-1788 -1816 0
-1788 -1817 0
-1788 -1818 0
-1788 -1819 0
-1788 -1820 0
-1788 -1821 0
-1788 -1822 0
-1788 -1823 0
-1788 -1824 0
-1788 -1825 0
-1788 -1826 0
-1788 -1827 0
-1788 -1828 0
-1788 -1829 0
-1788 -1830 0
-1788 -1831 0
-1788 -1832 0
-1788 -1833 0
-1788 -1834 0
-1788 -1835 0
-1788 -1836 0
-1788 -1837 0
-1788 -1838 0
-1788 -1839 0
-1788 -1840 0
-1788 -1841 0
-1789 -1790 0
-1789 -1791 0
-1789 -1792 0
-1789 -1793 0
-1789 -1794 0
-1789 -1795 0
-1789 -1796 0
-1789 -1797 0
-1789 -1798 0
-1789 -1799 0
-1789 -1800 0
-1789 -1801 0
-1789 -1802 0
-1789 -1803 0
-1789 -1804 0
-1789 -1805 0
-1789 -1806 0
-1789 -1807 0
-1789 -1808 0
-1789 -1809 0
-1789 -1810 0
-1789 -1811 0
-1789 -1812 0
-1789 -1813 0
-1789 -1814 0
-1789 -1815 0
-1789 -1816 0
-1789 -1817 0
-1789 -1818 0
-1789 -1819 0
-1789 -1820 0
-1789 -1821 0
-1789 -1822 0
-1789 -1823 0
-1789 -1824 0
-1789 -1825 0
-1789 -1826 0
-1789 -1827 0
-1789 -1828 0
-1789 -1829 0
-1789 -1830 0
-1789 -1831 0
-1789 -1832 0
-1789 -1833 0
-1789 -1834 0
-1789 -1835 0
-1789 -1836 0
-1789 -1837 0
-1789 -1838 0
-1789 -1839 0
-1789 -1840 0
-1789 -1841 0
-1790 -1791 0
-1790 -1792 0
-1790 -1793 0
-1790 -1794 0
-1790 -1795 0
-1790 -1796 0
-1790 -1797 0
-1790 -1798 0
-1790 -1799 0
-1790 -1800 0
-1790 -1801 0
-1790 -1802 0
-1790 -1803 0
-1790 -1804 0
-1790 -1805 0
-1790 -1806 0
-1790 -1807 0
-1790 -1808 0
-1790 -1809 0
-1790 -1810 0
-1790 -1811 0
-1790 -1812 0
-1790 -1813 0
-1790 -1814 0
-1790 -1815 0
-1790 -1816 0
-1790 -1817 0
-1790 -1818 0
-1790 -1819 0
-1790 -1820 0
-1790 -1821 0
-1790 -1822 0
-1790 -1823 0
-1790 -1824 0
-1790 -1825 0
-1790 -1826 0
-1790 -1827 0
-1790 -1828 0
-1790 -1829 0
-1790 -1830 0
-1790 -1831 0
-1790 -1832 0
-1790 -1833 0
-1790 -1834 0
-1790 -1835 0
-1790 -1836 0
-1790 -1837 0
-1790 -1838 0
-1790 -1839 0
-1790 -1840 0
-1790 -1841 0
-1791 -1792 0
-1791 -1793 0
-1791 -1794 0
-1791 -1795 0
-1791 -1796 0
-1791 -1797 0
-1791 -1798 0
-1791 -1799 0
-1791 -1800 0
-1791 -1801 0
-1791 -1802 0
-1791 -1803 0
-1791 -1804 0
-1791 -1805 0
-1791 -1806 0
-1791 -1807 0
-1791 -1808 0
-1791 -1809 0
-1791 -1810 0
-1791 -1811 0
-1791 -1812 0
-1791 -1813 0
-1791 -1814 0
-1791 -1815 0
-1791 -1816 0
-1791 -1817 0
-1791 -1818 0
-1791 -1819 0
-1791 -1820 0
-1791 -1821 0
-1791 -1822 0
-1791 -1823 0
-1791 -1824 0
-1791 -1825 0
-1791 -1826 0
-1791 -1827 0
-1791 -1828 0
-1791 -1829 0
-1791 -1830 0
-1791 -1831 0
-1791 -1832 0
-1791 -1833 0
-1791 -1834 0
-1791 -1835 0
-1791 -1836 0
-1791 -1837 0
-1791 -1838 0
-1791 -1839 0
-1791 -1840 0
-1791 -1841 0
-1792 -1793 0
-1792 -1794 0
-1792 -1795 0
-1792 -1796 0
-1792 -1797 0
-1792 -1798 0
-1792 -1799 0
-1792 -1800 0
-1792 -1801 0
-1792 -1802 0
-1792 -1803 0
-1792 -1804 0
-1792 -1805 0
-1792 -1806 0
-1792 -1807 0
-1792 -1808 0
-1792 -1809 0
-1792 -1810 0
-1792 -1811 0
-1792 -1812 0
-1792 -1813 0
-1792 -1814 0
-1792 -1815 0
-1792 -1816 0
-1792 -1817 0
-1792 -1818 0
-1792 -1819 0
-1792 -1820 0
-1792 -1821 0
-1792 -1822 0
-1792 -1823 0
-1792 -1824 0
-1792 -1825 0
-1792 -1826 0
-1792 -1827 0
-1792 -1828 0
-1792 -1829 0
-1792 -1830 0
-1792 -1831 0
-1792 -1832 0
-1792 -1833 0
-1792 -1834 0
-1792 -1835 0
-1792 -1836 0
-1792 -1837 0
-1792 -1838 0
-1792 -1839 0
-1792 -1840 0
-1792 -1841 0
-1793 -1794 0
-1793 -1795 0
-1793 -1796 0
-1793 -1797 0
-1793 -1798 0
-1793 -1799 0
-1793 -1800 0
-1793 -1801 0
-1793 -1802 0
-1793 -1803 0
-1793 -1804 0
-1793 -1805 0
-1793 -1806 0
-1793 -1807 0
-1793 -1808 0
-1793 -1809 0
-1793 -1810 0
-1793 -1811 0
-1793 -1812 0
-1793 -1813 0
-1793 -1814 0
-1793 -1815 0
-1793 -1816 0
-1793 -1817 0
-1793 -1818 0
-1793 -1819 0
-1793 -1820 0
-1793 -1821 0
-1793 -1822 0
-1793 -1823 0
-1793 -1824 0
-1793 -1825 0
-1793 -1826 0
-1793 -1827 0
-1793 -1828 0
-1793 -1829 0
-1793 -1830 0
-1793 -1831 0
-1793 -1832 0
-1793 -1833 0
-1793 -1834 0
-1793 -1835 0
-1793 -1836 0
-1793 -1837 0
-1793 -1838 0
-1793 -1839 0
-1793 -1840 0
-1793 -1841 0
-1794 -1795 0
-1794 -1796 0
-1794 -1797 0
-1794 -1798 0
-1794 -1799 0
-1794 -1800 0
-1794 -1801 0
-1794 -1802 0
-1794 -1803 0
-1794 -1804 0
-1794 -1805 0
-1794 -1806 0
-1794 -1807 0
-1794 -1808 0
-1794 -1809 0
-1794 -1810 0
-1794 -1811 0
-1794 -1812 0
-1794 -1813 0
-1794 -1814 0
-1794 -1815 0
-1794 -1816 0
-1794 -1817 0
-1794 -1818 0
-1794 -1819 0
-1794 -1820 0
-1794 -1821 0
-1794 -1822 0
-1794 -1823 0
-1794 -1824 0
-1794 -1825 0
-1794 -1826 0
-1794 -1827 0
-1794 -1828 0
-1794 -1829 0
-1794 -1830 0
-1794 -1831 0
-1794 -1832 0
-1794 -1833 0
-1794 -1834 0
-1794 -1835 0
-1794 -1836 0
-1794 -1837 0
-1794 -1838 0
-1794 -1839 0
-1794 -1840 0
-1794 -1841 0
-1795 -1796 0
-1795 -1797 0
-1795 -1798 0
-1795 -1799 0
-1795 -1800 0
-1795 -1801 0
-1795 -1802 0
-1795 -1803 0
-1795 -1804 0
-1795 -1805 0
-1795 -1806 0
-1795 -1807 0
-1795 -1808 0
-1795 -1809 0
-1795 -1810 0
-1795 -1811 0
-1795 -1812 0
-1795 -1813 0
-1795 -1814 0
-1795 -1815 0
-1795 -1816 0
-1795 -1817 0
-1795 -1818 0
-1795 -1819 0
-1795 -1820 0
-1795 -1821 0
-1795 -1822 0
-1795 -1823 0
-1795 -1824 0
-1795 -1825 0
-1795 -1826 0
-1795 -1827 0
-1795 -1828 0
-1795 -1829 0
-1795 -1830 0
-1795 -1831 0
-1795 -1832 0
-1795 -1833 0
-1795 -1834 0
-1795 -1835 0
-1795 -1836 0
-1795 -1837 0
-1795 -1838 0
-1795 -1839 0
-1795 -1840 0
-1795 -1841 0
-1796 -1797 0
-1796 -1798 0
-1796 -1799 0
-1796 -1800 0
-1796 -1801 0
-1796 -1802 0
-1796 -1803 0
-1796 -1804 0
-1796 -1805 0
-1796 -1806 0
-1796 -1807 0
-1796 -1808 0
-1796 -1809 0
-1796 -1810 0
-1796 -1811 0
-1796 -1812 0
-1796 -1813 0
-1796 -1814 0
-1796 -1815 0
-1796 -1816 0
-1796 -1817 0
-1796 -1818 0
-1796 -1819 0
-1796 -1820 0
-1796 -1821 0
-1796 -1822 0
-1796 -1823 0
-1796 -1824 0
-1796 -1825 0
-1796 -1826 0
-1796 -1827 0
-1796 -1828 0
-1796 -1829 0
-1796 -1830 0
-1796 -1831 0
-1796 -1832 0
-1796 -1833 0
-1796 -1834 0
-1796 -1835 0
-1796 -1836 0
-1796 -1837 0
-1796 -1838 0
-1796 -1839 0
-1796 -1840 0
-1796 -1841 0
-1797 -1798 0
-1797 -1799 0
-1797 -1800 0
-1797 -1801 0
-1797 -1802 0
-1797 -1803 0
-1797 -1804 0
-1797 -1805 0
-1797 -1806 0
-1797 -1807 0
-1797 -1808 0
-1797 -1809 0
-1797 -1810 0
-1797 -1811 0
-1797 -1812 0
-1797 -1813 0
-1797 -1814 0
-1797 -1815 0
-1797 -1816 0
-1797 -1817 0
-1797 -1818 0
-1797 -1819 0
-1797 -1820 0
-1797 -1821 0
-1797 -1822 0
-1797 -1823 0
-1797 -1824 0
-1797 -1825 0
-1797 -1826 0
-1797 -1827 0
-1797 -1828 0
-1797 -1829 0
-1797 -1830 0
-1797 -1831 0
-1797 -1832 0
-1797 -1833 0
-1797 -1834 0
-1797 -1835 0
-1797 -1836 0
-1797 -1837 0
-1797 -1838 0
-1797 -1839 0
-1797 -1840 0
-1797 -1841 0
-1798 -1799 0
-1798 -1800 0
-1798 -1801 0
-1798 -1802 0
-1798 -1803 0
-1798 -1804 0
-1798 -1805 0
-1798 -1806 0
-1798 -1807 0
-1798 -1808 0
-1798 -1809 0
-1798 -1810 0
-1798 -1811 0
-1798 -1812 0
-1798 -1813 0
-1798 -1814 0
-1798 -1815 0
-1798 -1816 0
-1798 -1817 0
-1798 -1818 0
-1798 -1819 0
-1798 -1820 0
-1798 -1821 0
-1798 -1822 0
-1798 -1823 0
-1798 -1824 0
-1798 -1825 0
-1798 -1826 0
-1798 -1827 0
-1798 -1828 0
-1798 -1829 0
-1798 -1830 0
-1798 -1831 0
-1798 -1832 0
-1798 -1833 0
-1798 -1834 0
-1798 -1835 0
-1798 -1836 0
-1798 -1837 0
-1798 -1838 0
-1798 -1839 0
-1798 -1840 0
-1798 -1841 0
-1799 -1800 0
-1799 -1801 0
-1799 -1802 0
-1799 -1803 0
-1799 -1804 0
-1799 -1805 0
-1799 -1806 0
-1799 -1807 0
-1799 -1808 0
-1799 -1809 0
-1799 -1810 0
-1799 -1811 0
-1799 -1812 0
-1799 -1813 0
-1799 -1814 0
-1799 -1815 0
-1799 -1816 0
-1799 -1817 0
-1799 -1818 0
-1799 -1819 0
-1799 -1820 0
-1799 -1821 0
-1799 -1822 0
-1799 -1823 0
-1799 -1824 0
-1799 -1825 0
-1799 -1826 0
-1799 -1827 0
-1799 -1828 0
-1799 -1829 0
-1799 -1830 0
-1799 -1831 0
-1799 -1832 0
-1799 -1833 0
-1799 -1834 0
-1799 -1835 0
-1799 -1836 0
-1799 -1837 0
-1799 -1838 0
-1799 -1839 0
-1799 -1840 0
-1799 -1841 0
-1800 -1801 0
-1800 -1802 0
-1800 -1803 0
-1800 -1804 0
-1800 -1805 0
-1800 -1806 0
-1800 -1807 0
-1800 -1808 0
-1800 -1809 0
-1800 -1810 0
-1800 -1811 0
-1800 -1812 0
-1800 -1813 0
-1800 -1814 0
-1800 -1815 0
-1800 -1816 0
-1800 -1817 0
-1800 -1818 0
-1800 -1819 0
-1800 -1820 0
-1800 -1821 0
-1800 -1822 0
-1800 -1823 0
-1800 -1824 0
-1800 -1825 0
-1800 -1826 0
-1800 -1827 0
-1800 -1828 0
-1800 -1829 0
-1800 -1830 0
-1800 -1831 0
-1800 -1832 0
-1800 -1833 0
-1800 -1834 0
-1800 -1835 0
-1800 -1836 0
-1800 -1837 0
-1800 -1838 0
-1800 -1839 0
-1800 -1840 0
-1800 -1841 0
-1801 -1802 0
-1801 -1803 0
-1801 -1804 0
-1801 -1805 0
-1801 -1806 0
-1801 -1807 0
-1801 -1808 0
-1801 -1809 0
-1801 -1810 0
-1801 -1811 0
-1801 -1812 0
-1801 -1813 0
-1801 -1814 0
-1801 -1815 0
-1801 -1816 0
-1801 -1817 0
-1801 -1818 0
-1801 -1819 0
-1801 -1820 0
-1801 -1821 0
-1801 -1822 0
-1801 -1823 0
-1801 -1824 0
-1801 -1825 0
-1801 -1826 0
-1801 -1827 0
-1801 -1828 0
-1801 -1829 0
-1801 -1830 0
-1801 -1831 0
-1801 -1832 0
-1801 -1833 0
-1801 -1834 0
-1801 -1835 0
-1801 -1836 0
-1801 -1837 0
-1801 -1838 0
-1801 -1839 0
-1801 -1840 0
-1801 -1841 0
-1802 -1803 0
-1802 -1804 0
-1802 -1805 0
-1802 -1806 0
-1802 -1807 0
-1802 -1808 0
-1802 -1809 0
-1802 -1810 0
-1802 -1811 0
-1802 -1812 0
-1802 -1813 0
-1802 -1814 0
-1802 -1815 0
-1802 -1816 0
-1802 -1817 0
-1802 -1818 0
-1802 -1819 0
-1802 -1820 0
-1802 -1821 0
-1802 -1822 0
-1802 -1823 0
-1802 -1824 0
-1802 -1825 0
-1802 -1826 0
-1802 -1827 0
-1802 -1828 0
-1802 -1829 0
-1802 -1830 0
-1802 -1831 0
-1802 -1832 0
-1802 -1833 0
-1802 -1834 0
-1802 -1835 0
-1802 -1836 0
-1802 -1837 0
-1802 -1838 0
-1802 -1839 0
-1802 -1840 0
-1802 -1841 0
-1803 -1804 0
-1803 -1805 0
-1803 -1806 0
-1803 -1807 0
-1803 -1808 0
-1803 -1809 0
-1803 -1810 0
-1803 -1811 0
-1803 -1812 0
-1803 -1813 0
-1803 -1814 0
-1803 -1815 0
-1803 -1816 0
-1803 -1817 0
-1803 -1818 0
-1803 -1819 0
-1803 -1820 0
-1803 -1821 0
-1803 -1822 0
-1803 -1823 0
-1803 -1824 0
-1803 -1825 0
-1803 -1826 0
-1803 -1827 0
-1803 -1828 0
-1803 -1829 0
-1803 -1830 0
-1803 -1831 0
-1803 -1832 0
-1803 -1833 0
-1803 -1834 0
-1803 -1835 0
-1803 -1836 0
-1803 -1837 0
-1803 -1838 0
-1803 -1839 0
-1803 -1840 0
-1803 -1841 0
-1804 -1805 0
-1804 -1806 0
-1804 -1807 0
-1804 -1808 0
-1804 -1809 0
-1804 -1810 0
-1804 -1811 0
-1804 -1812 0
-1804 -1813 0
-1804 -1814 0
-1804 -1815 0
-1804 -1816 0
-1804 -1817 0
-1804 -1818 0
-1804 -1819 0
-1804 -1820 0
-1804 -1821 0
-1804 -1822 0
-1804 -1823 0
-1804 -1824 0
-1804 -1825 0
-1804 -1826 0
-1804 -1827 0
-1804 -1828 0
-1804 -1829 0
-1804 -1830 0
-1804 -1831 0
-1804 -1832 0
-1804 -1833 0
-1804 -1834 0
-1804 -1835 0
-1804 -1836 0
-1804 -1837 0
-1804 -1838 0
-1804 -1839 0
-1804 -1840 0
-1804 -1841 0
-1805 -1806 0
-1805 -1807 0
-1805 -1808 0
-1805 -1809 0
-1805 -1810 0
-1805 -1811 0
-1805 -1812 0
-1805 -1813 0
-1805 -1814 0
-1805 -1815 0
-1805 -1816 0
-1805 -1817 0
-1805 -1818 0
-1805 -1819 0
-1805 -1820 0
-1805 -1821 0
-1805 -1822 0
-1805 -1823 0
-1805 -1824 0
-1805 -1825 0
-1805 -1826 0
-1805 -1827 0
-1805 -1828 0
-1805 -1829 0
-1805 -1830 0
-1805 -1831 0
-1805 -1832 0
-1805 -1833 0
-1805 -1834 0
-1805 -1835 0
-1805 -1836 0
-1805 -1837 0
-1805 -1838 0
-1805 -1839 0
-1805 -1840 0
-1805 -1841 0
-1806 -1807 0
-1806 -1808 0
-1806 -1809 0
-1806 -1810 0
-1806 -1811 0
-1806 -1812 0
-1806 -1813 0
-1806 -1814 0
-1806 -1815 0
-1806 -1816 0
-1806 -1817 0
-1806 -1818 0
-1806 -1819 0
-1806 -1820 0
-1806 -1821 0
-1806 -1822 0
-1806 -1823 0
-1806 -1824 0
-1806 -1825 0
-1806 -1826 0
-1806 -1827 0
-1806 -1828 0
-1806 -1829 0
-1806 -1830 0
-1806 -1831 0
-1806 -1832 0
-1806 -1833 0
-1806 -1834 0
-1806 -1835 0
-1806 -1836 0
-1806 -1837 0
-1806 -1838 0
-1806 -1839 0
-1806 -1840 0
-1806 -1841 0
-1807 -1808 0
-1807 -1809 0
-1807 -1810 0
-1807 -1811 0
-1807 -1812 0
-1807 -1813 0
-1807 -1814 0
-1807 -1815 0
-1807 -1816 0
-1807 -1817 0
-1807 -1818 0
-1807 -1819 0
-1807 -1820 0
-1807 -1821 0
-1807 -1822 0
-1807 -1823 0
-1807 -1824 0
-1807 -1825 0
-1807 -1826 0
-1807 -1827 0
-1807 -1828 0
-1807 -1829 0
-1807 -1830 0
-1807 -1831 0
-1807 -1832 0
-1807 -1833 0
-1807 -1834 0
-1807 -1835 0
-1807 -1836 0
-1807 -1837 0
-1807 -1838 0
-1807 -1839 0
-1807 -1840 0
-1807 -1841 0
-1808 -1809 0
-1808 -1810 0
-1808 -1811 0
-1808 -1812 0
-1808 -1813 0
-1808 -1814 0
-1808 -1815 0
-1808 -1816 0
-1808 -1817 0
-1808 -1818 0
-1808 -1819 0
-1808 -1820 0
-1808 -1821 0
-1808 -1822 0
-1808 -1823 0
-1808 -1824 0
-1808 -1825 0
-1808 -1826 0
-1808 -1827 0
-1808 -1828 0
-1808 -1829 0
-1808 -1830 0
-1808 -1831 0
-1808 -1832 0
-1808 -1833 0
-1808 -1834 0
-1808 -1835 0
-1808 -1836 0
-1808 -1837 0
-1808 -1838 0
-1808 -1839 0
-1808 -1840 0
-1808 -1841 0
-1809 -1810 0
-1809 -1811 0
-1809 -1812 0
-1809 -1813 0
-1809 -1814 0
-1809 -1815 0
-1809 -1816 0
-1809 -1817 0
-1809 -1818 0
-1809 -1819 0
-1809 -1820 0
-1809 -1821 0
-1809 -1822 0
-1809 -1823 0
-1809 -1824 0
-1809 -1825 0
-1809 -1826 0
-1809 -1827 0
-1809 -1828 0
-1809 -1829 0
-1809 -1830 0
-1809 -1831 0
-1809 -1832 0
-1809 -1833 0
-1809 -1834 0
-1809 -1835 0
-1809 -1836 0
-1809 -1837 0
-1809 -1838 0
-1809 -1839 0
-1809 -1840 0
-1809 -1841 0
-1810 -1811 0
-1810 -1812 0
-1810 -1813 0
-1810 -1814 0
-1810 -1815 0
-1810 -1816 0
-1810 -1817 0
-1810 -1818 0
-1810 -1819 0
-1810 -1820 0
-1810 -1821 0
-1810 -1822 0
-1810 -1823 0
-1810 -1824 0
-1810 -1825 0
-1810 -1826 0
-1810 -1827 0
-1810 -1828 0
-1810 -1829 0
-1810 -1830 0
-1810 -1831 0
-1810 -1832 0
-1810 -1833 0
-1810 -1834 0
-1810 -1835 0
-1810 -1836 0
-1810 -1837 0
-1810 -1838 0
-1810 -1839 0
-1810 -1840 0
-1810 -1841 0
-1811 -1812 0
-1811 -1813 0
-1811 -1814 0
-1811 -1815 0
-1811 -1816 0
-1811 -1817 0
-1811 -1818 0
-1811 -1819 0
-1811 -1820 0
-1811 -1821 0
-1811 -1822 0
-1811 -1823 0
-1811 -1824 0
-1811 -1825 0
-1811 -1826 0
-1811 -1827 0
-1811 -1828 0
-1811 -1829 0
-1811 -1830 0
-1811 -1831 0
-1811 -1832 0
-1811 -1833 0
-1811 -1834 0
-1811 -1835 0
-1811 -1836 0
-1811 -1837 0
-1811 -1838 0
-1811 -1839 0
-1811 -1840 0
-1811 -1841 0
-1812 -1813 0
-1812 -1814 0
-1812 -1815 0
-1812 -1816 0
-1812 -1817 0
-1812 -1818 0
-1812 -1819 0
-1812 -1820 0
-1812 -1821 0
-1812 -1822 0
-1812 -1823 0
-1812 -1824 0
-1812 -1825 0
-1812 -1826 0
-1812 -1827 0
-1812 -1828 0
-1812 -1829 0
-1812 -1830 0
-1812 -1831 0
-1812 -1832 0
-1812 -1833 0
-1812 -1834 0
-1812 -1835 0
-1812 -1836 0
-1812 -1837 0
-1812 -1838 0
-1812 -1839 0
-1812 -1840 0
-1812 -1841 0
-1813 -1814 0
-1813 -1815 0
-1813 -1816 0
-1813 -1817 0
-1813 -1818 0
-1813 -1819 0
-1813 -1820 0
-1813 -1821 0
-1813 -1822 0
-1813 -1823 0
-1813 -1824 0
-1813 -1825 0
-1813 -1826 0
-1813 -1827 0
-1813 -1828 0
-1813 -1829 0
-1813 -1830 0
-1813 -1831 0
-1813 -1832 0
-1813 -1833 0
-1813 -1834 0
-1813 -1835 0
-1813 -1836 0
-1813 -1837 0
-1813 -1838 0
-1813 -1839 0
-1813 -1840 0
-1813 -1841 0
-1814 -1815 0
-1814 -1816 0
-1814 -1817 0
-1814 -1818 0
-1814 -1819 0
-1814 -1820 0
-1814 -1821 0
-1814 -1822 0
-1814 -1823 0
-1814 -1824 0
-1814 -1825 0
-1814 -1826 0
-1814 -1827 0
-1814 -1828 0
-1814 -1829 0
-1814 -1830 0
-1814 -1831 0
-1814 -1832 0
-1814 -1833 0
-1814 -1834 0
-1814 -1835 0
-1814 -1836 0
-1814 -1837 0
-1814 -1838 0
-1814 -1839 0
-1814 -1840 0
-1814 -1841 0
-1815 -1816 0
-1815 -1817 0
-1815 -1818 0
-1815 -1819 0
-1815 -1820 0
-1815 -1821 0
-1815 -1822 0
-1815 -1823 0
-1815 -1824 0
-1815 -1825 0
-1815 -1826 0
-1815 -1827 0
-1815 -1828 0
-1815 -1829 0
-1815 -1830 0
-1815 -1831 0
-1815 -1832 0
-1815 -1833 0
-1815 -1834 0
-1815 -1835 0
-1815 -1836 0
-1815 -1837 0
-1815 -1838 0
-1815 -1839 0
-1815 -1840 0
-1815 -1841 0
-1816 -1817 0
-1816 -1818 0
-1816 -1819 0
-1816 -1820 0
-1816 -1821 0
-1816 -1822 0
-1816 -1823 0
-1816 -1824 0
-1816 -1825 0
-1816 -1826 0
-1816 -1827 0
-1816 -1828 0
-1816 -1829 0
-1816 -1830 0
-1816 -1831 0
-1816 -1832 0
-1816 -1833 0
-1816 -1834 0
-1816 -1835 0
-1816 -1836 0
-1816 -1837 0
-1816 -1838 0
-1816 -1839 0
-1816 -1840 0
-1816 -1841 0
-1817 -1818 0
-1817 -1819 0
-1817 -1820 0
-1817 -1821 0
-1817 -1822 0
-1817 -1823 0
-1817 -1824 0
-1817 -1825 0
-1817 -1826 0
-1817 -1827 0
-1817 -1828 0
-1817 -1829 0
-1817 -1830 0
-1817 -1831 0
-1817 -1832 0
-1817 -1833 0
-1817 -1834 0
-1817 -1835 0
-1817 -1836 0
-1817 -1837 0
-1817 -1838 0
-1817 -1839 0
-1817 -1840 0
-1817 -1841 0
-1818 -1819 0
-1818 -1820 0
-1818 -1821 0
-1818 -1822 0
-1818 -1823 0
-1818 -1824 0
-1818 -1825 0
-1818 -1826 0
-1818 -1827 0
-1818 -1828 0
-1818 -1829 0
-1818 -1830 0
-1818 -1831 0
-1818 -1832 0
-1818 -1833 0
-1818 -1834 0
-1818 -1835 0
-1818 -1836 0
-1818 -1837 0
-1818 -1838 0
-1818 -1839 0
-1818 -1840 0
-1818 -1841 0
-1819 -1820 0
-1819 -1821 0
-1819 -1822 0
-1819 -1823 0
-1819 -1824 0
-1819 -1825 0
-1819 -1826 0
-1819 -1827 0
-1819 -1828 0
-1819 -1829 0
-1819 -1830 0
-1819 -1831 0
-1819 -1832 0
-1819 -1833 0
-1819 -1834 0
-1819 -1835 0
-1819 -1836 0
-1819 -1837 0
-1819 -1838 0
-1819 -1839 0
-1819 -1840 0
-1819 -1841 0
-1820 -1821 0
-1820 -1822 0
-1820 -1823 0
-1820 -1824 0
-1820 -1825 0
-1820 -1826 0
-1820 -1827 0
-1820 -1828 0
-1820 -1829 0
-1820 -1830 0
-1820 -1831 0
-1820 -1832 0
-1820 -1833 0
-1820 -1834 0
-1820 -1835 0
-1820 -1836 0
-1820 -1837 0
-1820 -1838 0
-1820 -1839 0
-1820 -1840 0
-1820 -1841 0
-1821 -1822 0
-1821 -1823 0
-1821 -1824 0
-1821 -1825 0
-1821 -1826 0
-1821 -1827 0
-1821 -1828 0
-1821 -1829 0
-1821 -1830 0
-1821 -1831 0
-1821 -1832 0
-1821 -1833 0
-1821 -1834 0
-1821 -1835 0
-1821 -1836 0
-1821 -1837 0
-1821 -1838 0
-1821 -1839 0
-1821 -1840 0
-1821 -1841 0
-1822 -1823 0
-1822 -1824 0
-1822 -1825 0
-1822 -1826 0
-1822 -1827 0
-1822 -1828 0
-1822 -1829 0
-1822 -1830 0
-1822 -1831 0
-1822 -1832 0
-1822 -1833 0
-1822 -1834 0
-1822 -1835 0
-1822 -1836 0
-1822 -1837 0
-1822 -1838 0
-1822 -1839 0
-1822 -1840 0
-1822 -1841 0
-1823 -1824 0
-1823 -1825 0
-1823 -1826 0
-1823 -1827 0
-1823 -1828 0
-1823 -1829 0
-1823 -1830 0
-1823 -1831 0
-1823 -1832 0
-1823 -1833 0
-1823 -1834 0
-1823 -1835 0
-1823 -1836 0
-1823 -1837 0
-1823 -1838 0
-1823 -1839 0
-1823 -1840 0
-1823 -1841 0
-1824 -1825 0
-1824 -1826 0
-1824 -1827 0
-1824 -1828 0
-1824 -1829 0
-1824 -1830 0
-1824 -1831 0
-1824 -1832 0
-1824 -1833 0
-1824 -1834 0
-1824 -1835 0
-1824 -1836 0
-1824 -1837 0
-1824 -1838 0
-1824 -1839 0
-1824 -1840 0
-1824 -1841 0
-1825 -1826 0
-1825 -1827 0
-1825 -1828 0
-1825 -1829 0
-1825 -1830 0
-1825 -1831 0
-1825 -1832 0
-1825 -1833 0
-1825 -1834 0
-1825 -1835 0
-1825 -1836 0
-1825 -1837 0
-1825 -1838 0
-1825 -1839 0
-1825 -1840 0
-1825 -1841 0
-1826 -1827 0
-1826 -1828 0
-1826 -1829 0
-1826 -1830 0
-1826 -1831 0
-1826 -1832 0
-1826 -1833 0
-1826 -1834 0
-1826 -1835 0
-1826 -1836 0
-1826 -1837 0
-1826 -1838 0
-1826 -1839 0
-1826 -1840 0
-1826 -1841 0
-1827 -1828 0
-1827 -1829 0
-1827 -1830 0
-1827 -1831 0
-1827 -1832 0
-1827 -1833 0
-1827 -1834 0
-1827 -1835 0
-1827 -1836 0
-1827 -1837 0
-1827 -1838 0
-1827 -1839 0
-1827 -1840 0
-1827 -1841 0
-1828 -1829 0
-1828 -1830 0
-1828 -1831 0
-1828 -1832 0
-1828 -1833 0
-1828 -1834 0
-1828 -1835 0
-1828 -1836 0
-1828 -1837 0
-1828 -1838 0
-1828 -1839 0
-1828 -1840 0
-1828 -1841 0
-1829 -1830 0
-1829 -1831 0
-1829 -1832 0
-1829 -1833 0
-1829 -1834 0
-1829 -1835 0
-1829 -1836 0
-1829 -1837 0
-1829 -1838 0
-1829 -1839 0
-1829 -1840 0
-1829 -1841 0
-1830 -1831 0
-1830 -1832 0
-1830 -1833 0
-1830 -1834 0
-1830 -1835 0
-1830 -1836 0
-1830 -1837 0
-1830 -1838 0
-1830 -1839 0
-1830 -1840 0
-1830 -1841 0
-1831 -1832 0
-1831 -1833 0
-1831 -1834 0
-1831 -1835 0
-1831 -1836 0
-1831 -1837 0
-1831 -1838 0
-1831 -1839 0
-1831 -1840 0
-1831 -1841 0
-1832 -1833 0
-1832 -1834 0
-1832 -1835 0
-1832 -1836 0
-1832 -1837 0
-1832 -1838 0
-1832 -1839 0
-1832 -1840 0
-1832 -1841 0
-1833 -1834 0
-1833 -1835 0
-1833 -1836 0
-1833 -1837 0
-1833 -1838 0
-1833 -1839 0
-1833 -1840 0
-1833 -1841 0
-1834 -1835 0
-1834 -1836 0
-1834 -1837 0
-1834 -1838 0
-1834 -1839 0
-1834 -1840 0
-1834 -1841 0
-1835 -1836 0
-1835 -1837 0
-1835 -1838 0
-1835 -1839 0
-1835 -1840 0
-1835 -1841 0
-1836 -1837 0
-1836 -1838 0
-1836 -1839 0
-1836 -1840 0
-1836 -1841 0
-1837 -1838 0
-1837 -1839 0
-1837 -1840 0
-1837 -1841 0
-1838 -1839 0
-1838 -1840 0
-1838 -1841 0
-1839 -1840 0
-1839 -1841 0
-1840 -1841 0
-1727 51 1785 0
-1727 -51 1784 0
-1728 51 1786 0
-1728 -51 1785 0
-1729 51 1787 0
-1729 -51 1786 0
-1730 51 1788 0
-1730 -51 1787 0
-1731 51 1789 0
-1731 -51 1788 0
-1732 51 1790 0
-1732 -51 1789 0
-1733 51 1791 0
-1733 -51 1790 0
-1734 51 1792 0
-1734 -51 1791 0
-1735 51 1793 0
-1735 -51 1792 0
-1736 51 1794 0
-1736 -51 1793 0
-1737 51 1795 0
-1737 -51 1794 0
-1738 51 1796 0
-1738 -51 1795 0
-1739 51 1797 0
-1739 -51 1796 0
-1740 51 1798 0
-1740 -51 1797 0
-1741 51 1799 0
-1741 -51 1798 0
-1742 51 1800 0
-1742 -51 1799 0
-1743 51 1801 0
-1743 -51 1800 0
-1744 51 1802 0
-1744 -51 1801 0
-1745 51 1803 0
-1745 -51 1802 0
-1746 51 1804 0
-1746 -51 1803 0
-1747 51 1805 0
-1747 -51 1804 0
-1748 51 1806 0
-1748 -51 1805 0
-1749 51 1807 0
-1749 -51 1806 0
-1750 51 1808 0
-1750 -51 1807 0
-1751 51 1809 0
-1751 -51 1808 0
-1752 51 1810 0
-1752 -51 1809 0
-1753 51 1811 0
-1753 -51 1810 0
-1754 51 1812 0
-1754 -51 1811 0
-1755 51 1813 0
-1755 -51 1812 0
-1756 51 1814 0
-1756 -51 1813 0
-1757 51 1815 0
-1757 -51 1814 0
-1758 51 1816 0
-1758 -51 1815 0
-1759 51 1817 0
-1759 -51 1816 0
-1760 51 1818 0
-1760 -51 1817 0
-1761 51 1819 0
-1761 -51 1818 0
-1762 51 1820 0
-1762 -51 1819 0
-1763 51 1821 0
-1763 -51 1820 0
-1764 51 1822 0
-1764 -51 1821 0
-1765 51 1823 0
-1765 -51 1822 0
-1766 51 1824 0
-1766 -51 1823 0
-1767 51 1825 0
-1767 -51 1824 0
-1768 51 1826 0
-1768 -51 1825 0
-1769 51 1827 0
-1769 -51 1826 0
-1770 51 1828 0
-1770 -51 1827 0
-1771 51 1829 0
-1771 -51 1828 0
-1772 51 1830 0
-1772 -51 1829 0
-1773 51 1831 0
-1773 -51 1830 0
-1774 51 1832 0
-1774 -51 1831 0
-1775 51 1833 0
-1775 -51 1832 0
-1776 51 1834 0
-1776 -51 1833 0
-1777 51 1835 0
-1777 -51 1834 0
-1778 51 1836 0
-1778 -51 1835 0
-1779 51 1837 0
-1779 -51 1836 0
-1780 51 1838 0
-1780 -51 1837 0
-1781 51 1839 0
-1781 -51 1838 0
-1782 51 1840 0
-1782 -51 1839 0
-1783 51 1841 0
-1783 -51 1840 0
1842 1843 1844 1845 1846 1847 1848 1849 1850 1851 1852 1853 1854 1855 1856 1857 1858 1859 1860 1861 1862 1863 1864 1865 1866 1867 1868 1869 1870 1871 1872 1873 1874 1875 1876 1877 1878 1879 1880 1881 1882 1883 1884 1885 1886 1887 1888 1889 1890 1891 1892 1893 1894 1895 1896 1897 1898 1899 1900 0
-1842 -1843 0
-1842 -1844 0
-1842 -1845 0
-1842 -1846 0
-1842 -1847 0
-1842 -1848 0
-1842 -1849 0
-1842 -1850 0
-1842 -1851 0
-1842 -1852 0
-1842 -1853 0
-1842 -1854 0
-1842 -1855 0
-1842 -1856 0
-1842 -1857 0
-1842 -1858 0
-1842 -1859 0
-1842 -1860 0
-1842 -1861 0
-1842 -1862 0
-1842 -1863 0
-1842 -1864 0
-1842 -1865 0
-1842 -1866 0
-1842 -1867 0
-1842 -1868 0
-1842 -1869 0
-1842 -1870 0
-1842 -1871 0
-1842 -1872 0
-1842 -1873 0
-1842 -1874 0
-1842 -1875 0
-1842 -1876 0
-1842 -1877 0
-1842 -1878 0
-1842 -1879 0
-1842 -1880 0
-1842 -1881 0
-1842 -1882 0
-1842 -1883 0
-1842 -1884 0
-1842 -1885 0
-1842 -1886 0
-1842 -1887 0
-1842 -1888 0
-1842 -1889 0
-1842 -1890 0
-1842 -1891 0
-1842 -1892 0
-1842 -1893 0
-1842 -1894 0
-1842 -1895 0
-1842 -1896 0
-1842 -1897 0
-1842 -1898 0
-1842 -1899 0
-1842 -1900 0
-1843 -1844 0
-1843 -1845 0
-1843 -1846 0
-1843 -1847 0
-1843 -1848 0
-1843 -1849 0
-1843 -1850 0
-1843 -1851 0
-1843 -1852 0
-1843 -1853 0
-1843 -1854 0
-1843 -1855 0
-1843 -1856 0
-1843 -1857 0
-1843 -1858 0
-1843 -1859 0
-1843 -1860 0
-1843 -1861 0
-1843 -1862 0
-1843 -1863 0
-1843 -1864 0
-1843 -1865 0
-1843 -1866 0
-1843 -1867 0
-1843 -1868 0
-1843 -1869 0
-1843 -1870 0
-1843 -1871 0
-1843 -1872 0
-1843 -1873 0
-1843 -1874 0
-1843 -1875 0
-1843 -1876 0
-1843 -1877 0
-1843 -1878 0
-1843 -1879 0
-1843 -1880 0
-1843 -1881 0
-1843 -1882 0
-1843 -1883 0
-1843 -1884 0
-1843 -1885 0
-1843 -1886 0
-1843 -1887 0
-1843 -1888 0
-1843 -1889 0
-1843 -1890 0
-1843 -1891 0
-1843 -1892 0
-1843 -1893 0
-1843 -1894 0
-1843 -1895 0
-1843 -1896 0
-1843 -1897 0
-1843 -1898 0
-1843 -1899 0
-1843 -1900 0
-1844 -1845 0
-1844 -1846 0
-1844 -1847 0
-1844 -1848 0
-1844 -1849 0
-1844 -1850 0
-1844 -1851 0
-1844 -1852 0
-1844 -1853 0
-1844 -1854 0
-1844 -1855 0
-1844 -1856 0
-1844 -1857 0
-1844 -1858 0
-1844 -1859 0
-1844 -1860 0
-1844 -1861 0
-1844 -1862 0
-1844 -1863 0
-1844 -1864 0
-1844 -1865 0
-1844 -1866 0
-1844 -1867 0
-1844 -1868 0
-1844 -1869 0
-1844 -1870 0
-1844 -1871 0
-1844 -1872 0
-1844 -1873 0
-1844 -1874 0
-1844 -1875 0
-1844 -1876 0
-1844 -1877 0
-1844 -1878 0
-1844 -1879 0
-1844 -1880 0
-1844 -1881 0
-1844 -1882 0
-1844 -1883 0
-1844 -1884 0
-1844 -1885 0
-1844 -1886 0
-1844 -1887 0
-1844 -1888 0
-1844 -1889 0
-1844 -1890 0
-1844 -1891 0
-1844 -1892 0
-1844 -1893 0
-1844 -1894 0
-1844 -1895 0
-1844 -1896 0
-1844 -1897 0
-1844 -1898 0
-1844 -1899 0
-1844 -1900 0
-1845 -1846 0
-1845 -1847 0
-1845 -1848 0
-1845 -1849 0
-1845 -1850 0
-1845 -1851 0
-1845 -1852 0
-1845 -1853 0
-1845 -1854 0
-1845 -1855 0
-1845 -1856 0
-1845 -1857 0
-1845 -1858 0
-1845 -1859 0
-1845 -1860 0
-1845 -1861 0
-1845 -1862 0
-1845 -1863 0
-1845 -1864 0
-1845 -1865 0
-1845 -1866 0
-1845 -1867 0
-1845 -1868 0
-1845 -1869 0
-1845 -1870 0
-1845 -1871 0
-1845 -1872 0
-1845 -1873 0
-1845 -1874 0
-1845 -1875 0
-1845 -1876 0
-1845 -1877 0
-1845 -1878 0
-1845 -1879 0
-1845 -1880 0
-1845 -1881 0
-1845 -1882 0
-1845 -1883 0
-1845 -1884 0
-1845 -1885 0
-1845 -1886 0
-1845 -1887 0
-1845 -1888 0
-1845 -1889 0
-1845 -1890 0
-1845 -1891 0
-1845 -1892 0
-1845 -1893 0
-1845 -1894 0
-1845 -1895 0
-1845 -1896 0
-1845 -1897 0
-1845 -1898 0
-1845 -1899 0
-1845 -1900 0
-1846 -1847 0
-1846 -1848 0
-1846 -1849 0
-1846 -1850 0
-1846 -1851 0
-1846 -1852 0
-1846 -1853 0
-1846 -1854 0
-1846 -1855 0
-1846 -1856 0
-1846 -1857 0
-1846 -1858 0
-1846 -1859 0
-1846 -1860 0
-1846 -1861 0
-1846 -1862 0
-1846 -1863 0
-1846 -1864 0
-1846 -1865 0
-1846 -1866 0
-1846 -1867 0
-1846 -1868 0
-1846 -1869 0
-1846 -1870 0
-1846 -1871 0
-1846 -1872 0
-1846 -1873 0
-1846 -1874 0
-1846 -1875 0
-1846 -1876 0
-1846 -1877 0
-1846 -1878 0
-1846 -1879 0
-1846 -1880 0
-1846 -1881 0
-1846 -1882 0
-1846 -1883 0
-1846 -1884 0
-1846 -1885 0
-1846 -1886 0
-1846 -1887 0
-1846 -1888 0
-1846 -1889 0
-1846 -1890 0
-1846 -1891 0
-1846 -1892 0
-1846 -1893 0
-1846 -1894 0
-1846 -1895 0
-1846 -1896 0
-1846 -1897 0
-1846 -1898 0
-1846 -1899 0
-1846 -1900 0
-1847 -1848 0
-1847 -1849 0
-1847 -1850 0
-1847 -1851 0
-1847 -1852 0
-1847 -1853 0
-1847 -1854 0
-1847 -1855 0
-1847 -1856 0
-1847 -1857 0
-1847 -1858 0
-1847 -1859 0
-1847 -1860 0
-1847 -1861 0
-1847 -1862 0
-1847 -1863 0
-1847 -1864 0
-1847 -1865 0
-1847 -1866 0
-1847 -1867 0
-1847 -1868 0
-1847 -1869 0
-1847 -1870 0
-1847 -1871 0
-1847 -1872 0
-1847 -1873 0
-1847 -1874 0
-1847 -1875 0
-1847 -1876 0
-1847 -1877 0
-1847 -1878 0
-1847 -1879 0
-1847 -1880 0
-1847 -1881 0
-1847 -1882 0
-1847 -1883 0
-1847 -1884 0
-1847 -1885 0
-1847 -1886 0
-1847 -1887 0
-1847 -1888 0
-1847 -1889 0
-1847 -1890 0
-1847 -1891 0
-1847 -1892 0
-1847 -1893 0
-1847 -1894 0
-1847 -1895 0
-1847 -1896 0
-1847 -1897 0
-1847 -1898 0
-1847 -1899 0
-1847 -1900 0
-1848 -1849 0
-1848 -1850 0
-1848 -1851 0
-1848 -1852 0
-1848 -1853 0
-1848 -1854 0
-1848 -1855 0
-1848 -1856 0
-1848 -1857 0
-1848 -1858 0
-1848 -1859 0
-1848 -1860 0
-1848 -1861 0
-1848 -1862 0
-1848 -1863 0
-1848 -1864 0
-1848 -1865 0
-1848 -1866 0
-1848 -1867 0
-1848 -1868 0
-1848 -1869 0
-1848 -1870 0
-1848 -1871 0
-1848 -1872 0
-1848 -1873 0
-1848 -1874 0
-1848 -1875 0
-1848 -1876 0
-1848 -1877 0
-1848 -1878 0
-1848 -1879 0
-1848 -1880 0
-1848 -1881 0
-1848 -1882 0
-1848 -1883 0
-1848 -1884 0
-1848 -1885 0
-1848 -1886 0
-1848 -1887 0
-1848 -1888 0
-1848 -1889 0
-1848 -1890 0
-1848 -1891 0
-1848 -1892 0
-1848 -1893 0
-1848 -1894 0
-1848 -1895 0
-1848 -1896 0
-1848 -1897 0
-1848 -1898 0
-1848 -1899 0
-1848 -1900 0
-1849 -1850 0
-1849 -1851 0
-1849 -1852 0
-1849 -1853 0
-1849 -1854 0
-1849 -1855 0
-1849 -1856 0
-1849 -1857 0
-1849 -1858 0
-1849 -1859 0
-1849 -1860 0
-1849 -1861 0
-1849 -1862 0
-1849 -1863 0
-1849 -1864 0
-1849 -1865 0
-1849 -1866 0
-1849 -1867 0
-1849 -1868 0
-1849 -1869 0
-1849 -1870 0
-1849 -1871 0
-1849 -1872 0
-1849 -1873 0
-1849 -1874 0
-1849 -1875 0
-1849 -1876 0
-1849 -1877 0
-1849 -1878 0
-1849 -1879 0
-1849 -1880 0
-1849 -1881 0
-1849 -1882 0
-1849 -1883 0
-1849 -1884 0
-1849 -1885 0
-1849 -1886 0
-1849 -1887 0
-1849 -1888 0
-1849 -1889 0
-1849 -1890 0
-1849 -1891 0
-1849 -1892 0
-1849 -1893 0
-1849 -1894 0
-1849 -1895 0
-1849 -1896 0
-1849 -1897 0
-1849 -1898 0
-1849 -1899 0
-1849 -1900 0
-1850 -1851 0
-1850 -1852 0
-1850 -1853 0
-1850 -1854 0
-1850 -1855 0
-1850 -1856 0
-1850 -1857 0
-1850 -1858 0
-1850 -1859 0
-1850 -1860 0
-1850 -1861 0
-1850 -1862 0
-1850 -1863 0
-1850 -1864 0
-1850 -1865 0
-1850 -1866 0
-1850 -1867 0
-1850 -1868 0
-1850 -1869 0
-1850 -1870 0
-1850 -1871 0
-1850 -1872 0
-1850 -1873 0
-1850 -1874 0
-1850 -1875 0
-1850 -1876 0
-1850 -1877 0
-1850 -1878 0
-1850 -1879 0
-1850 -1880 0
-1850 -1881 0
-1850 -1882 0
-1850 -1883 0
-1850 -1884 0
-1850 -1885 0
-1850 -1886 0
-1850 -1887 0
-1850 -1888 0
-1850 -1889 0
-1850 -1890 0
-1850 -1891 0
-1850 -1892 0
-1850 -1893 0
-1850 -1894 0
-1850 -1895 0
-1850 -1896 0
-1850 -1897 0
-1850 -1898 0
-1850 -1899 0
-1850 -1900 0
-1851 -1852 0
-1851 -1853 0
-1851 -1854 0
-1851 -1855 0
-1851 -1856 0
-1851 -1857 0
-1851 -1858 0
-1851 -1859 0
-1851 -1860 0
-1851 -1861 0
-1851 -1862 0
-1851 -1863 0
-1851 -1864 0
-1851 -1865 0
-1851 -1866 0
-1851 -1867 0
-1851 -1868 0
-1851 -1869 0
-1851 -1870 0
-1851 -1871 0
-1851 -1872 0
-1851 -1873 0
-1851 -1874 0
-1851 -1875 0
-1851 -1876 0
-1851 -1877 0
-1851 -1878 0
-1851 -1879 0
-1851 -1880 0
-1851 -1881 0
-1851 -1882 0
-1851 -1883 0
-1851 -1884 0
-1851 -1885 0
-1851 -1886 0
-1851 -1887 0
-1851 -1888 0
-1851 -1889 0
-1851 -1890 0
-1851 -1891 0
-1851 -1892 0
-1851 -1893 0
-1851 -1894 0
-1851 -1895 0
-1851 -1896 0
-1851 -1897 0
-1851 -1898 0
-1851 -1899 0
-1851 -1900 0
-1852 -1853 0
-1852 -1854 0
-1852 -1855 0
-1852 -1856 0
-1852 -1857 0
-1852 -1858 0
-1852 -1859 0
-1852 -1860 0
-1852 -1861 0
-1852 -1862 0
-1852 -1863 0
-1852 -1864 0
-1852 -1865 0
-1852 -1866 0
-1852 -1867 0
-1852 -1868 0
-1852 -1869 0
-1852 -1870 0
-1852 -1871 0
-1852 -1872 0
-1852 -1873 0
-1852 -1874 0
-1852 -1875 0
-1852 -1876 0
-1852 -1877 0
-1852 -1878 0
-1852 -1879 0
-1852 -1880 0
-1852 -1881 0
-1852 -1882 0
-1852 -1883 0
-1852 -1884 0
-1852 -1885 0
-1852 -1886 0
-1852 -1887 0
-1852 -1888 0
-1852 -1889 0
-1852 -1890 0
-1852 -1891 0
-1852 -1892 0
-1852 -1893 0
-1852 -1894 0
-1852 -1895 0
-1852 -1896 0
-1852 -1897 0
-1852 -1898 0
-1852 -1899 0
-1852 -1900 0
-1853 -1854 0
-1853 -1855 0
-1853 -1856 0
-1853 -1857 0
-1853 -1858 0
-1853 -1859 0
-1853 -1860 0
-1853 -1861 0
-1853 -1862 0
-1853 -1863 0
-1853 -1864 0
-1853 -1865 0
-1853 -1866 0
-1853 -1867 0
-1853 -1868 0
-1853 -1869 0
-1853 -1870 0
-1853 -1871 0
-1853 -1872 0
-1853 -1873 0
-1853 -1874 0
-1853 -1875 0
-1853 -1876 0
-1853 -1877 0
-1853 -1878 0
-1853 -1879 0
-1853 -1880 0
-1853 -1881 0
-1853 -1882 0
-1853 -1883 0
-1853 -1884 0
-1853 -1885 0
-1853 -1886 0
-1853 -1887 0
-1853 -1888 0
-1853 -1889 0
-1853 -1890 0
-1853 -1891 0
-1853 -1892 0
-1853 -1893 0
-1853 -1894 0
-1853 -1895 0
-1853 -1896 0
-1853 -1897 0
-1853 -1898 0
-1853 -1899 0
-1853 -1900 0
-1854 -1855 0
-1854 -1856 0
-1854 -1857 0
-1854 -1858 0
-1854 -1859 0
-1854 -1860 0
-1854 -1861 0
-1854 -1862 0
-1854 -1863 0
-1854 -1864 0
-1854 -1865 0
-1854 -1866 0
-1854 -1867 0
-1854 -1868 0
-1854 -1869 0
-1854 -1870 0
-1854 -1871 0
-1854 -1872 0
-1854 -1873 0
-1854 -1874 0
-1854 -1875 0
-1854 -1876 0
-1854 -1877 0
-1854 -1878 0
-1854 -1879 0
-1854 -1880 0
-1854 -1881 0
-1854 -1882 0
-1854 -1883 0
-1854 -1884 0
-1854 -1885 0
-1854 -1886 0
-1854 -1887 0
-1854 -1888 0
-1854 -1889 0
-1854 -1890 0
-1854 -1891 0
-1854 -1892 0
-1854 -1893 0
-1854 -1894 0
-1854 -1895 0
-1854 -1896 0
-1854 -1897 0
-1854 -1898 0
-1854 -1899 0
-1854 -1900 0
-1855 -1856 0
-1855 -1857 0
-1855 -1858 0
-1855 -1859 0
-1855 -1860 0
-1855 -1861 0
-1855 -1862 0
-1855 -1863 0
-1855 -1864 0
-1855 -1865 0
-1855 -1866 0
-1855 -1867 0
-1855 -1868 0
-1855 -1869 0
-1855 -1870 0
-1855 -1871 0
-1855 -1872 0
-1855 -1873 0
-1855 -1874 0
-1855 -1875 0
-1855 -1876 0
-1855 -1877 0
-1855 -1878 0
-1855 -1879 0
-1855 -1880 0
-1855 -1881 0
-1855 -1882 0
-1855 -1883 0
-1855 -1884 0
-1855 -1885 0
-1855 -1886 0
-1855 -1887 0
-1855 -1888 0
-1855 -1889 0
-1855 -1890 0
-1855 -1891 0
-1855 -1892 0
-1855 -1893 0
-1855 -1894 0
-1855 -1895 0
-1855 -1896 0
-1855 -1897 0
-1855 -1898 0
-1855 -1899 0
-1855 -1900 0
-1856 -1857 0
-1856 -1858 0
-1856 -1859 0
-1856 -1860 0
-1856 -1861 0
-1856 -1862 0
-1856 -1863 0
-1856 -1864 0
-1856 -1865 0
-1856 -1866 0
-1856 -1867 0
-1856 -1868 0
-1856 -1869 0
-1856 -1870 0
-1856 -1871 0
-1856 -1872 0
-1856 -1873 0
-1856 -1874 0
-1856 -1875 0
-1856 -1876 0
-1856 -1877 0
-1856 -1878 0
-1856 -1879 0
-1856 -1880 0
-1856 -1881 0
-1856 -1882 0
-1856 -1883 0
-1856 -1884 0
-1856 -1885 0
-1856 -1886 0
-1856 -1887 0
-1856 -1888 0
-1856 -1889 0
-1856 -1890 0
-1856 -1891 0
-1856 -1892 0
-1856 -1893 0
-1856 -1894 0
-1856 -1895 0
-1856 -1896 0
-1856 -1897 0
-1856 -1898 0
-1856 -1899 0
-1856 -1900 0
-1857 -1858 0
-1857 -1859 0
-1857 -1860 0
-1857 -1861 0
-1857 -1862 0
-1857 -1863 0
-1857 -1864 0
-1857 -1865 0
-1857 -1866 0
-1857 -1867 0
-1857 -1868 0
-1857 -1869 0
-1857 -1870 0
-1857 -1871 0
-1857 -1872 0
-1857 -1873 0
-1857 -1874 0
-1857 -1875 0
-1857 -1876 0
-1857 -1877 0
-1857 -1878 0
-1857 -1879 0
-1857 -1880 0
-1857 -1881 0
-1857 -1882 0
-1857 -1883 0
-1857 -1884 0
-1857 -1885 0
-1857 -1886 0
-1857 -1887 0
-1857 -1888 0
-1857 -1889 0
-1857 -1890 0
-1857 -1891 0
-1857 -1892 0
-1857 -1893 0
-1857 -1894 0
-1857 -1895 0
-1857 -1896 0
-1857 -1897 0
-1857 -1898 0
-1857 -1899 0
-1857 -1900 0
-1858 -1859 0
-1858 -1860 0
-1858 -1861 0
-1858 -1862 0
-1858 -1863 0
-1858 -1864 0
-1858 -1865 0
-1858 -1866 0
-1858 -1867 0
-1858 -1868 0
-1858 -1869 0
-1858 -1870 0
-1858 -1871 0
-1858 -1872 0
-1858 -1873 0
-1858 -1874 0
-1858 -1875 0
-1858 -1876 0
-1858 -1877 0
-1858 -1878 0
-1858 -1879 0
-1858 -1880 0
-1858 -1881 0
-1858 -1882 0
-1858 -1883 0
-1858 -1884 0
-1858 -1885 0
-1858 -1886 0
-1858 -1887 0
-1858 -1888 0
-1858 -1889 0
-1858 -1890 0
-1858 -1891 0
-1858 -1892 0
-1858 -1893 0
-1858 -1894 0
-1858 -1895 0
-1858 -1896 0
-1858 -1897 0
-1858 -1898 0
-1858 -1899 0
-1858 -1900 0
-1859 -1860 0
-1859 -1861 0
-1859 -1862 0
-1859 -1863 0
-1859 -1864 0
-1859 -1865 0
-1859 -1866 0
-1859 -1867 0
-1859 -1868 0
-1859 -1869 0
-1859 -1870 0
-1859 -1871 0
-1859 -1872 0
-1859 -1873 0
-1859 -1874 0
-1859 -1875 0
-1859 -1876 0
-1859 -1877 0
-1859 -1878 0
-1859 -1879 0
-1859 -1880 0
-1859 -1881 0
-1859 -1882 0
-1859 -1883 0
-1859 -1884 0
-1859 -1885 0
-1859 -1886 0
-1859 -1887 0
-1859 -1888 0
-1859 -1889 0
-1859 -1890 0
-1859 -1891 0
-1859 -1892 0
-1859 -1893 0
-1859 -1894 0
-1859 -1895 0
-1859 -1896 0
-1859 -1897 0
-1859 -1898 0
-1859 -1899 0
-1859 -1900 0
-1860 -1861 0
-1860 -1862 0
-1860 -1863 0
-1860 -1864 0
-1860 -1865 0
-1860 -1866 0
-1860 -1867 0
-1860 -1868 0
-1860 -1869 0
-1860 -1870 0
-1860 -1871 0
-1860 -1872 0
-1860 -1873 0
-1860 -1874 0
-1860 -1875 0
-1860 -1876 0
-1860 -1877 0
-1860 -1878 0
-1860 -1879 0
-1860 -1880 0
-1860 -1881 0
-1860 -1882 0
-1860 -1883 0
-1860 -1884 0
-1860 -1885 0
-1860 -1886 0
-1860 -1887 0
-1860 -1888 0
-1860 -1889 0
-1860 -1890 0
-1860 -1891 0
-1860 -1892 0
-1860 -1893 0
-1860 -1894 0
-1860 -1895 0
-1860 -1896 0
-1860 -1897 0
-1860 -1898 0
-1860 -1899 0
-1860 -1900 0
-1861 -1862 0
-1861 -1863 0
-1861 -1864 0
-1861 -1865 0
-1861 -1866 0
-1861 -1867 0
-1861 -1868 0
-1861 -1869 0
-1861 -1870 0
-1861 -1871 0
-1861 -1872 0
-1861 -1873 0
-1861 -1874 0
-1861 -1875 0
-1861 -1876 0
-1861 -1877 0
-1861 -1878 0
-1861 -1879 0
-1861 -1880 0
-1861 -1881 0
-1861 -1882 0
-1861 -1883 0
-1861 -1884 0
-1861 -1885 0
-1861 -1886 0
-1861 -1887 0
-1861 -1888 0
-1861 -1889 0
-1861 -1890 0
-1861 -1891 0
-1861 -1892 0
-1861 -1893 0
-1861 -1894 0
-1861 -1895 0
-1861 -1896 0
-1861 -1897 0
-1861 -1898 0
-1861 -1899 0
-1861 -1900 0
-1862 -1863 0
-1862 -1864 0
-1862 -1865 0
-1862 -1866 0
-1862 -1867 0
-1862 -1868 0
-1862 -1869 0
-1862 -1870 0
-1862 -1871 0
-1862 -1872 0
-1862 -1873 0
-1862 -1874 0
-1862 -1875 0
-1862 -1876 0
-1862 -1877 0
-1862 -1878 0
-1862 -1879 0
-1862 -1880 0
-1862 -1881 0
-1862 -1882 0
-1862 -1883 0
-1862 -1884 0
-1862 -1885 0
-1862 -1886 0
-1862 -1887 0
-1862 -1888 0
-1862 -1889 0
-1862 -1890 0
-1862 -1891 0
-1862 -1892 0
-1862 -1893 0
-1862 -1894 0
-1862 -1895 0
-1862 -1896 0
-1862 -1897 0
-1862 -1898 0
-1862 -1899 0
-1862 -1900 0
-1863 -1864 0
-1863 -1865 0
-1863 -1866 0
-1863 -1867 0
-1863 -1868 0
-1863 -1869 0
-1863 -1870 0
-1863 -1871 0
-1863 -1872 0
-1863 -1873 0
-1863 -1874 0
-1863 -1875 0
-1863 -1876 0
-1863 -1877 0
-1863 -1878 0
-1863 -1879 0
-1863 -1880 0
-1863 -1881 0
-1863 -1882 0
-1863 -1883 0
-1863 -1884 0
-1863 -1885 0
-1863 -1886 0
-1863 -1887 0
-1863 -1888 0
-1863 -1889 0
-1863 -1890 0
-1863 -1891 0
-1863 -1892 0
-1863 -1893 0
-1863 -1894 0
-1863 -1895 0
-1863 -1896 0
-1863 -1897 0
-1863 -1898 0
-1863 -1899 0
-1863 -1900 0
-1864 -1865 0
-1864 -1866 0
-1864 -1867 0
-1864 -1868 0
-1864 -1869 0
-1864 -1870 0
-1864 -1871 0
-1864 -1872 0
-1864 -1873 0
-1864 -1874 0
-1864 -1875 0
-1864 -1876 0
-1864 -1877 0
-1864 -1878 0
-1864 -1879 0
-1864 -1880 0
-1864 -1881 0
-1864 -1882 0
-1864 -1883 0
-1864 -1884 0
-1864 -1885 0
-1864 -1886 0
-1864 -1887 0
-1864 -1888 0
-1864 -1889 0
-1864 -1890 0
-1864 -1891 0
-1864 -1892 0
-1864 -1893 0
-1864 -1894 0
-1864 -1895 0
-1864 -1896 0
-1864 -1897 0
-1864 -1898 0
-1864 -1899 0
-1864 -1900 0
-1865 -1866 0
-1865 -1867 0
-1865 -1868 0
-1865 -1869 0
-1865 -1870 0
-1865 -1871 0
-1865 -1872 0
-1865 -1873 0
-1865 -1874 0
-1865 -1875 0
-1865 -1876 0
-1865 -1877 0
-1865 -1878 0
-1865 -1879 0
-1865 -1880 0
-1865 -1881 0
-1865 -1882 0
-1865 -1883 0
-1865 -1884 0
-1865 -1885 0
-1865 -1886 0
-1865 -1887 0
-1865 -1888 0
-1865 -1889 0
-1865 -1890 0
-1865 -1891 0
-1865 -1892 0
-1865 -1893 0
-1865 -1894 0
-1865 -1895 0
-1865 -1896 0
-1865 -1897 0
-1865 -1898 0
-1865 -1899 0
-1865 -1900 0
-1866 -1867 0
-1866 -1868 0
-1866 -1869 0
-1866 -1870 0
-1866 -1871 0
-1866 -1872 0
-1866 -1873 0
-1866 -1874 0
-1866 -1875 0
-1866 -1876 0
-1866 -1877 0
-1866 -1878 0
-1866 -1879 0
-1866 -1880 0
-1866 -1881 0
-1866 -1882 0
-1866 -1883 0
-1866 -1884 0
-1866 -1885 0
-1866 -1886 0
-1866 -1887 0
-1866 -1888 0
-1866 -1889 0
-1866 -1890 0
-1866 -1891 0
-1866 -1892 0
-1866 -1893 0
-1866 -1894 0
-1866 -1895 0
-1866 -1896 0
-1866 -1897 0
-1866 -1898 0
-1866 -1899 0
-1866 -1900 0
-1867 -1868 0
-1867 -1869 0
-1867 -1870 0
-1867 -1871 0
-1867 -1872 0
-1867 -1873 0
-1867 -1874 0
-1867 -1875 0
-1867 -1876 0
-1867 -1877 0
-1867 -1878 0
-1867 -1879 0
-1867 -1880 0
-1867 -1881 0
-1867 -1882 0
-1867 -1883 0
-1867 -1884 0
-1867 -1885 0
-1867 -1886 0
-1867 -1887 0
-1867 -1888 0
-1867 -1889 0
-1867 -1890 0
-1867 -1891 0
-1867 -1892 0
-1867 -1893 0
-1867 -1894 0
-1867 -1895 0
-1867 -1896 0
-1867 -1897 0
-1867 -1898 0
-1867 -1899 0
-1867 -1900 0
-1868 -1869 0
-1868 -1870 0
-1868 -1871 0
-1868 -1872 0
-1868 -1873 0
-1868 -1874 0
-1868 -1875 0
-1868 -1876 0
-1868 -1877 0
-1868 -1878 0
-1868 -1879 0
-1868 -1880 0
-1868 -1881 0
-1868 -1882 0
-1868 -1883 0
-1868 -1884 0
-1868 -1885 0
-1868 -1886 0
-1868 -1887 0
-1868 -1888 0
-1868 -1889 0
-1868 -1890 0
-1868 -1891 0
-1868 -1892 0
-1868 -1893 0
-1868 -1894 0
-1868 -1895 0
-1868 -1896 0
-1868 -1897 0
-1868 -1898 0
-1868 -1899 0
-1868 -1900 0
-1869 -1870 0
-1869 -1871 0
-1869 -1872 0
-1869 -1873 0
-1869 -1874 0
-1869 -1875 0
-1869 -1876 0
-1869 -1877 0
-1869 -1878 0
-1869 -1879 0
-1869 -1880 0
-1869 -1881 0
-1869 -1882 0
-1869 -1883 0
-1869 -1884 0
-1869 -1885 0
-1869 -1886 0
-1869 -1887 0
-1869 -1888 0
-1869 -1889 0
-1869 -1890 0
-1869 -1891 0
-1869 -1892 0
-1869 -1893 0
-1869 -1894 0
-1869 -1895 0
-1869 -1896 0
-1869 -1897 0
-1869 -1898 0
-1869 -1899 0
-1869 -1900 0
-1870 -1871 0
-1870 -1872 0
-1870 -1873 0
-1870 -1874 0
-1870 -1875 0
-1870 -1876 0
-1870 -1877 0
-1870 -1878 0
-1870 -1879 0
-1870 -1880 0
-1870 -1881 0
-1870 -1882 0
-1870 -1883 0
-1870 -1884 0
-1870 -1885 0
-1870 -1886 0
-1870 -1887 0
-1870 -1888 0
-1870 -1889 0
-1870 -1890 0
-1870 -1891 0
-1870 -1892 0
-1870 -1893 0
-1870 -1894 0
-1870 -1895 0
-1870 -1896 0
-1870 -1897 0
-1870 -1898 0
-1870 -1899 0
-1870 -1900 0
-1871 -1872 0
-1871 -1873 0
-1871 -1874 0
-1871 -1875 0
-1871 -1876 0
-1871 -1877 0
-1871 -1878 0
-1871 -1879 0
-1871 -1880 0
-1871 -1881 0
-1871 -1882 0
-1871 -1883 0
-1871 -1884 0
-1871 -1885 0
-1871 -1886 0
-1871 -1887 0
-1871 -1888 0
-1871 -1889 0
-1871 -1890 0
-1871 -1891 0
-1871 -1892 0
-1871 -1893 0
-1871 -1894 0
-1871 -1895 0
-1871 -1896 0
-1871 -1897 0
-1871 -1898 0
-1871 -1899 0
-1871 -1900 0
-1872 -1873 0
-1872 -1874 0
-1872 -1875 0
-1872 -1876 0
-1872 -1877 0
-1872 -1878 0
-1872 -1879 0
-1872 -1880 0
-1872 -1881 0
-1872 -1882 0
-1872 -1883 0
-1872 -1884 0
-1872 -1885 0
-1872 -1886 0
-1872 -1887 0
-1872 -1888 0
-1872 -1889 0
-1872 -1890 0
-1872 -1891 0
-1872 -1892 0
-1872 -1893 0
-1872 -1894 0
-1872 -1895 0
-1872 -1896 0
-1872 -1897 0
-1872 -1898 0
-1872 -1899 0
-1872 -1900 0
-1873 -1874 0
-1873 -1875 0
-1873 -1876 0
-1873 -1877 0
-1873 -1878 0
-1873 -1879 0
-1873 -1880 0
-1873 -1881 0
-1873 -1882 0
-1873 -1883 0
-1873 -1884 0
-1873 -1885 0
-1873 -1886 0
-1873 -1887 0
-1873 -1888 0
-1873 -1889 0
-1873 -1890 0
-1873 -1891 0
-1873 -1892 0
-1873 -1893 0
-1873 -1894 0
-1873 -1895 0
-1873 -1896 0
-1873 -1897 0
-1873 -1898 0
-1873 -1899 0
-1873 -1900 0
-1874 -1875 0
-1874 -1876 0
-1874 -1877 0
-1874 -1878 0
-1874 -1879 0
-1874 -1880 0
-1874 -1881 0
-1874 -1882 0
-1874 -1883 0
-1874 -1884 0
-1874 -1885 0
-1874 -1886 0
-1874 -1887 0
-1874 -1888 0
-1874 -1889 0
-1874 -1890 0
-1874 -1891 0
-1874 -1892 0
-1874 -1893 0
-1874 -1894 0
-1874 -1895 0
-1874 -1896 0
-1874 -1897 0
-1874 -1898 0
-1874 -1899 0
-1874 -1900 0
-1875 -1876 0
-1875 -1877 0
-1875 -1878 0
-1875 -1879 0
-1875 -1880 0
-1875 -1881 0
-1875 -1882 0
-1875 -1883 0
-1875 -1884 0
-1875 -1885 0
-1875 -1886 0
-1875 -1887 0
-1875 -1888 0
-1875 -1889 0
-1875 -1890 0
-1875 -1891 0
-1875 -1892 0
-1875 -1893 0
-1875 -1894 0
-1875 -1895 0
-1875 -1896 0
-1875 -1897 0
-1875 -1898 0
-1875 -1899 0
-1875 -1900 0
-1876 -1877 0
-1876 -1878 0
-1876 -1879 0
-1876 -1880 0
-1876 -1881 0
-1876 -1882 0
-1876 -1883 0
-1876 -1884 0
-1876 -1885 0
-1876 -1886 0
-1876 -1887 0
-1876 -1888 0
-1876 -1889 0
-1876 -1890 0
-1876 -1891 0
-1876 -1892 0
-1876 -1893 0
-1876 -1894 0
-1876 -1895 0
-1876 -1896 0
-1876 -1897 0
-1876 -1898 0
-1876 -1899 0
-1876 -1900 0
-1877 -1878 0
-1877 -1879 0
-1877 -1880 0
-1877 -1881 0
-1877 -1882 0
-1877 -1883 0
-1877 -1884 0
-1877 -1885 0
-1877 -1886 0
-1877 -1887 0
-1877 -1888 0
-1877 -1889 0
-1877 -1890 0
-1877 -1891 0
-1877 -1892 0
-1877 -1893 0
-1877 -1894 0
-1877 -1895 0
-1877 -1896 0
-1877 -1897 0
-1877 -1898 0
-1877 -1899 0
-1877 -1900 0
-1878 -1879 0
-1878 -1880 0
-1878 -1881 0
-1878 -1882 0
-1878 -1883 0
-1878 -1884 0
-1878 -1885 0
-1878 -1886 0
-1878 -1887 0
-1878 -1888 0
-1878 -1889 0
-1878 -1890 0
-1878 -1891 0
-1878 -1892 0
-1878 -1893 0
-1878 -1894 0
-1878 -1895 0
-1878 -1896 0
-1878 -1897 0
-1878 -1898 0
-1878 -1899 0
-1878 -1900 0
-1879 -1880 0
-1879 -1881 0
-1879 -1882 0
-1879 -1883 0
-1879 -1884 0
-1879 -1885 0
-1879 -1886 0
-1879 -1887 0
-1879 -1888 0
-1879 -1889 0
-1879 -1890 0
-1879 -1891 0
-1879 -1892 0
-1879 -1893 0
-1879 -1894 0
-1879 -1895 0
-1879 -1896 0
-1879 -1897 0
-1879 -1898 0
-1879 -1899 0
-1879 -1900 0
-1880 -1881 0
-1880 -1882 0
-1880 -1883 0
-1880 -1884 0
-1880 -1885 0
-1880 -1886 0
-1880 -1887 0
-1880 -1888 0
-1880 -1889 0
-1880 -1890 0
-1880 -1891 0
-1880 -1892 0
-1880 -1893 0
-1880 -1894 0
-1880 -1895 0
-1880 -1896 0
-1880 -1897 0
-1880 -1898 0
-1880 -1899 0
-1880 -1900 0
-1881 -1882 0
-1881 -1883 0
-1881 -1884 0
-1881 -1885 0
-1881 -1886 0
-1881 -1887 0
-1881 -1888 0
-1881 -1889 0
-1881 -1890 0
-1881 -1891 0
-1881 -1892 0
-1881 -1893 0
-1881 -1894 0
-1881 -1895 0
-1881 -1896 0
-1881 -1897 0
-1881 -1898 0
-1881 -1899 0
-1881 -1900 0
-1882 -1883 0
-1882 -1884 0
-1882 -1885 0
-1882 -1886 0
-1882 -1887 0
-1882 -1888 0
-1882 -1889 0
-1882 -1890 0
-1882 -1891 0
-1882 -1892 0
-1882 -1893 0
-1882 -1894 0
-1882 -1895 0
-1882 -1896 0
-1882 -1897 0
-1882 -1898 0
-1882 -1899 0
-1882 -1900 0
-1883 -1884 0
-1883 -1885 0
-1883 -1886 0
-1883 -1887 0
-1883 -1888 0
-1883 -1889 0
-1883 -1890 0
-1883 -1891 0
-1883 -1892 0
-1883 -1893 0
-1883 -1894 0
-1883 -1895 0
-1883 -1896 0
-1883 -1897 0
-1883 -1898 0
-1883 -1899 0
-1883 -1900 0
-1884 -1885 0
-1884 -1886 0
-1884 -1887 0
-1884 -1888 0
-1884 -1889 0
-1884 -1890 0
-1884 -1891 0
-1884 -1892 0
-1884 -1893 0
-1884 -1894 0
-1884 -1895 0
-1884 -1896 0
-1884 -1897 0
-1884 -1898 0
-1884 -1899 0
-1884 -1900 0
-1885 -1886 0
-1885 -1887 0
-1885 -1888 0
-1885 -1889 0
-1885 -1890 0
-1885 -1891 0
-1885 -1892 0
-1885 -1893 0
-1885 -1894 0
-1885 -1895 0
-1885 -1896 0
-1885 -1897 0
-1885 -1898 0
-1885 -1899 0
-1885 -1900 0
-1886 -1887 0
-1886 -1888 0
-1886 -1889 0
-1886 -1890 0
-1886 -1891 0
-1886 -1892 0
-1886 -1893 0
-1886 -1894 0
-1886 -1895 0
-1886 -1896 0
-1886 -1897 0
-1886 -1898 0
-1886 -1899 0
-1886 -1900 0
-1887 -1888 0
-1887 -1889 0
-1887 -1890 0
-1887 -1891 0
-1887 -1892 0
-1887 -1893 0
-1887 -1894 0
-1887 -1895 0
-1887 -1896 0
-1887 -1897 0
-1887 -1898 0
-1887 -1899 0
-1887 -1900 0
-1888 -1889 0
-1888 -1890 0
-1888 -1891 0
-1888 -1892 0
-1888 -1893 0
-1888 -1894 0
-1888 -1895 0
-1888 -1896 0
-1888 -1897 0
-1888 -1898 0
-1888 -1899 0
-1888 -1900 0
-1889 -1890 0
-1889 -1891 0
-1889 -1892 0
-1889 -1893 0
-1889 -1894 0
-1889 -1895 0
-1889 -1896 0
-1889 -1897 0
-1889 -1898 0
-1889 -1899 0
-1889 -1900 0
-1890 -1891 0
-1890 -1892 0
-1890 -1893 0
-1890 -1894 0
-1890 -1895 0
-1890 -1896 0
-1890 -1897 0
-1890 -1898 0
-1890 -1899 0
-1890 -1900 0
-1891 -1892 0
-1891 -1893 0
-1891 -1894 0
-1891 -1895 0
-1891 -1896 0
-1891 -1897 0
-1891 -1898 0
-1891 -1899 0
-1891 -1900 0
-1892 -1893 0
-1892 -1894 0
-1892 -1895 0
-1892 -1896 0
-1892 -1897 0
-1892 -1898 0
-1892 -1899 0
-1892 -1900 0
-1893 -1894 0
-1893 -1895 0
-1893 -1896 0
-1893 -1897 0
-1893 -1898 0
-1893 -1899 0
-1893 -1900 0
-1894 -1895 0
-1894 -1896 0
-1894 -1897 0
-1894 -1898 0
-1894 -1899 0
-1894 -1900 0
-1895 -1896 0
-1895 -1897 0
-1895 -1898 0
-1895 -1899 0
-1895 -1900 0
-1896 -1897 0
-1896 -1898 0
-1896 -1899 0
-1896 -1900 0
-1897 -1898 0
-1897 -1899 0
-1897 -1900 0
-1898 -1899 0
-1898 -1900 0
-1899 -1900 0
-1784 54 1843 0
-1784 -54 1842 0
-1785 54 1844 0
-1785 -54 1843 0
-1786 54 1845 0
-1786 -54 1844 0
-1787 54 1846 0
-1787 -54 1845 0
-1788 54 1847 0
-1788 -54 1846 0
-1789 54 1848 0
-1789 -54 1847 0
-1790 54 1849 0
-1790 -54 1848 0
-1791 54 1850 0
-1791 -54 1849 0
-1792 54 1851 0
-1792 -54 1850 0
-1793 54 1852 0
-1793 -54 1851 0
-1794 54 1853 0
-1794 -54 1852 0
-1795 54 1854 0
-1795 -54 1853 0
-1796 54 1855 0
-1796 -54 1854 0
-1797 54 1856 0
-1797 -54 1855 0
-1798 54 1857 0
-1798 -54 1856 0
-1799 54 1858 0
-1799 -54 1857 0
-1800 54 1859 0
-1800 -54 1858 0
-1801 54 1860 0
-1801 -54 1859 0
-1802 54 1861 0
-1802 -54 1860 0
-1803 54 1862 0
-1803 -54 1861 0
-1804 54 1863 0
-1804 -54 1862 0
-1805 54 1864 0
-1805 -54 1863 0
-1806 54 1865 0
-1806 -54 1864 0
-1807 54 1866 0
-1807 -54 1865 0
-1808 54 1867 0
-1808 -54 1866 0
-1809 54 1868 0
-1809 -54 1867 0
-1810 54 1869 0
-1810 -54 1868 0
-1811 54 1870 0
-1811 -54 1869 0
-1812 54 1871 0
-1812 -54 1870 0
-1813 54 1872 0
-1813 -54 1871 0
-1814 54 1873 0
-1814 -54 1872 0
-1815 54 1874 0
-1815 -54 1873 0
-1816 54 1875 0
-1816 -54 1874 0
-1817 54 1876 0
-1817 -54 1875 0
-1818 54 1877 0
-1818 -54 1876 0
-1819 54 1878 0
-1819 -54 1877 0
-1820 54 1879 0
-1820 -54 1878 0
-1821 54 1880 0
-1821 -54 1879 0
-1822 54 1881 0
-1822 -54 1880 0
-1823 54 1882 0
-1823 -54 1881 0
-1824 54 1883 0
-1824 -54 1882 0
-1825 54 1884 0
-1825 -54 1883 0
-1826 54 1885 0
-1826 -54 1884 0
-1827 54 1886 0
-1827 -54 1885 0
-1828 54 1887 0
-1828 -54 1886 0
-1829 54 1888 0
-1829 -54 1887 0
-1830 54 1889 0
-1830 -54 1888 0
-1831 54 1890 0
-1831 -54 1889 0
-1832 54 1891 0
-1832 -54 1890 0
-1833 54 1892 0
-1833 -54 1891 0
-1834 54 1893 0
-1834 -54 1892 0
-1835 54 1894 0
-1835 -54 1893 0
-1836 54 1895 0
-1836 -54 1894 0
-1837 54 1896 0
-1837 -54 1895 0
-1838 54 1897 0
-1838 -54 1896 0
-1839 54 1898 0
-1839 -54 1897 0
-1840 54 1899 0
-1840 -54 1898 0
-1841 54 1900 0
-1841 -54 1899 0
1901 1902 1903 1904 1905 1906 1907 1908 1909 1910 1911 1912 1913 1914 1915 1916 1917 1918 1919 1920 1921 1922 1923 1924 1925 1926 1927 1928 1929 1930 1931 1932 1933 1934 1935 1936 1937 1938 1939 1940 1941 1942 1943 1944 1945 1946 1947 1948 1949 1950 1951 1952 1953 1954 1955 1956 1957 1958 1959 1960 0
-1901 -1902 0
-1901 -1903 0
-1901 -1904 0
-1901 -1905 0
-1901 -1906 0
-1901 -1907 0
-1901 -1908 0
-1901 -1909 0
-1901 -1910 0
-1901 -1911 0
-1901 -1912 0
-1901 -1913 0
-1901 -1914 0
-1901 -1915 0
-1901 -1916 0
-1901 -1917 0
-1901 -1918 0
-1901 -1919 0
-1901 -1920 0
-1901 -1921 0
-1901 -1922 0
-1901 -1923 0
-1901 -1924 0
-1901 -1925 0
-1901 -1926 0
-1901 -1927 0
-1901 -1928 0
-1901 -1929 0
-1901 -1930 0
-1901 -1931 0
-1901 -1932 0
-1901 -1933 0
-1901 -1934 0
-1901 -1935 0
-1901 -1936 0
-1901 -1937 0
-1901 -1938 0
-1901 -1939 0
-1901 -1940 0
-1901 -1941 0
-1901 -1942 0
-1901 -1943 0
-1901 -1944 0
-1901 -1945 0
-1901 -1946 0
-1901 -1947 0
-1901 -1948 0
-1901 -1949 0
-1901 -1950 0
-1901 -1951 0
-1901 -1952 0
-1901 -1953 0
-1901 -1954 0
-1901 -1955 0
-1901 -1956 0
-1901 -1957 0
-1901 -1958 0
-1901 -1959 0
-1901 -1960 0
-1902 -1903 0
-1902 -1904 0
-1902 -1905 0
-1902 -1906 0
-1902 -1907 0
-1902 -1908 0
-1902 -1909 0
-1902 -1910 0
-1902 -1911 0
-1902 -1912 0
-1902 -1913 0
-1902 -1914 0
-1902 -1915 0
-1902 -1916 0
-1902 -1917 0
-1902 -1918 0
-1902 -1919 0
-1902 -1920 0
-1902 -1921 0
-1902 -1922 0
-1902 -1923 0
-1902 -1924 0
-1902 -1925 0
-1902 -1926 0
-1902 -1927 0
-1902 -1928 0
-1902 -1929 0
-1902 -1930 0
-1902 -1931 0
-1902 -1932 0
-1902 -1933 0
-1902 -1934 0
-1902 -1935 0
-1902 -1936 0
-1902 -1937 0
-1902 -1938 0
-1902 -1939 0
-1902 -1940 0
-1902 -1941 0
-1902 -1942 0
-1902 -1943 0
-1902 -1944 0
-1902 -1945 0
-1902 -1946 0
-1902 -1947 0
-1902 -1948 0
-1902 -1949 0
-1902 -1950 0
-1902 -1951 0
-1902 -1952 0
-1902 -1953 0
-1902 -1954 0
-1902 -1955 0
-1902 -1956 0
-1902 -1957 0
-1902 -1958 0
-1902 -1959 0
-1902 -1960 0
-1903 -1904 0
-1903 -1905 0
-1903 -1906 0
-1903 -1907 0
-1903 -1908 0
-1903 -1909 0
-1903 -1910 0
-1903 -1911 0
-1903 -1912 0
-1903 -1913 0
-1903 -1914 0
-1903 -1915 0
-1903 -1916 0
-1903 -1917 0
-1903 -1918 0
-1903 -1919 0
-1903 -1920 0
-1903 -1921 0
-1903 -1922 0
-1903 -1923 0
-1903 -1924 0
-1903 -1925 0
-1903 -1926 0
-1903 -1927 0
-1903 -1928 0
-1903 -1929 0
-1903 -1930 0
-1903 -1931 0
-1903 -1932 0
-1903 -1933 0
-1903 -1934 0
-1903 -1935 0
-1903 -1936 0
-1903 -1937 0
-1903 -1938 0
-1903 -1939 0
-1903 -1940 0
-1903 -1941 0
-1903 -1942 0
-1903 -1943 0
-1903 -1944 0
-1903 -1945 0
-1903 -1946 0
-1903 -1947 0
-1903 -1948 0
-1903 -1949 0
-1903 -1950 0
-1903 -1951 0
-1903 -1952 0
-1903 -1953 0
-1903 -1954 0
-1903 -1955 0
-1903 -1956 0
-1903 -1957 0
-1903 -1958 0
-1903 -1959 0
-1903 -1960 0
-1904 -1905 0
-1904 -1906 0
-1904 -1907 0
-1904 -1908 0
-1904 -1909 0
-1904 -1910 0
-1904 -1911 0
-1904 -1912 0
-1904 -1913 0
-1904 -1914 0
-1904 -1915 0
-1904 -1916 0
-1904 -1917 0
-1904 -1918 0
-1904 -1919 0
-1904 -1920 0
-1904 -1921 0
-1904 -1922 0
-1904 -1923 0
-1904 -1924 0
-1904 -1925 0
-1904 -1926 0
-1904 -1927 0
-1904 -1928 0
-1904 -1929 0
-1904 -1930 0
-1904 -1931 0
-1904 -1932 0
-1904 -1933 0
-1904 -1934 0
-1904 -1935 0
-1904 -1936 0
-1904 -1937 0
-1904 -1938 0
-1904 -1939 0
-1904 -1940 0
-1904 -1941 0
-1904 -1942 0
-1904 -1943 0
-1904 -1944 0
-1904 -1945 0
-1904 -1946 0
-1904 -1947 0
-1904 -1948 0
-1904 -1949 0
-1904 -1950 0
-1904 -1951 0
-1904 -1952 0
-1904 -1953 0
-1904 -1954 0
-1904 -1955 0
-1904 -1956 0
-1904 -1957 0
-1904 -1958 0
-1904 -1959 0
-1904 -1960 0
-1905 -1906 0
-1905 -1907 0
-1905 -1908 0
-1905 -1909 0
-1905 -1910 0
-1905 -1911 0
-1905 -1912 0
-1905 -1913 0
-1905 -1914 0
-1905 -1915 0
-1905 -1916 0
-1905 -1917 0
-1905 -1918 0
-1905 -1919 0
-1905 -1920 0
-1905 -1921 0
-1905 -1922 0
-1905 -1923 0
-1905 -1924 0
-1905 -1925 0
-1905 -1926 0
-1905 -1927 0
-1905 -1928 0
-1905 -1929 0
-1905 -1930 0
-1905 -1931 0
-1905 -1932 0
-1905 -1933 0
-1905 -1934 0
-1905 -1935 0
-1905 -1936 0
-1905 -1937 0
-1905 -1938 0
-1905 -1939 0
-1905 -1940 0
-1905 -1941 0
-1905 -1942 0
-1905 -1943 0
-1905 -1944 0
-1905 -1945 0
-1905 -1946 0
-1905 -1947 0
-1905 -1948 0
-1905 -1949 0
-1905 -1950 0
-1905 -1951 0
-1905 -1952 0
-1905 -1953 0
-1905 -1954 0
-1905 -1955 0
-1905 -1956 0
-1905 -1957 0
-1905 -1958 0
-1905 -1959 0
-1905 -1960 0
-1906 -1907 0
-1906 -1908 0
-1906 -1909 0
-1906 -1910 0
-1906 -1911 0
-1906 -1912 0
-1906 -1913 0
-1906 -1914 0
-1906 -1915 0
-1906 -1916 0
-1906 -1917 0
-1906 -1918 0
-1906 -1919 0
-1906 -1920 0
-1906 -1921 0
-1906 -1922 0
-1906 -1923 0
-1906 -1924 0
-1906 -1925 0
-1906 -1926 0
-1906 -1927 0
-1906 -1928 0
-1906 -1929 0
-1906 -1930 0
-1906 -1931 0
-1906 -1932 0
-1906 -1933 0
-1906 -1934 0
-1906 -1935 0
-1906 -1936 0
-1906 -1937 0
-1906 -1938 0
-1906 -1939 0
-1906 -1940 0
-1906 -1941 0
-1906 -1942 0
-1906 -1943 0
-1906 -1944 0
-1906 -1945 0
-1906 -1946 0
-1906 -1947 0
-1906 -1948 0
-1906 -1949 0
-1906 -1950 0
-1906 -1951 0
-1906 -1952 0
-1906 -1953 0
-1906 -1954 0
-1906 -1955 0
-1906 -1956 0
-1906 -1957 0
-1906 -1958 0
-1906 -1959 0
-1906 -1960 0
-1907 -1908 0
-1907 -1909 0
-1907 -1910 0
-1907 -1911 0
-1907 -1912 0
-1907 -1913 0
-1907 -1914 0
-1907 -1915 0
-1907 -1916 0
-1907 -1917 0
-1907 -1918 0
-1907 -1919 0
-1907 -1920 0
-1907 -1921 0
-1907 -1922 0
-1907 -1923 0
-1907 -1924 0
-1907 -1925 0
-1907 -1926 0
-1907 -1927 0
-1907 -1928 0
-1907 -1929 0
-1907 -1930 0
-1907 -1931 0
-1907 -1932 0
-1907 -1933 0
-1907 -1934 0
-1907 -1935 0
-1907 -1936 0
-1907 -1937 0
-1907 -1938 0
-1907 -1939 0
-1907 -1940 0
-1907 -1941 0
-1907 -1942 0
-1907 -1943 0
-1907 -1944 0
-1907 -1945 0
-1907 -1946 0
-1907 -1947 0
-1907 -1948 0
-1907 -1949 0
-1907 -1950 0
-1907 -1951 0
-1907 -1952 0
-1907 -1953 0
-1907 -1954 0
-1907 -1955 0
-1907 -1956 0
-1907 -1957 0
-1907 -1958 0
-1907 -1959 0
-1907 -1960 0
-1908 -1909 0
-1908 -1910 0
-1908 -1911 0
-1908 -1912 0
-1908 -1913 0
-1908 -1914 0
-1908 -1915 0
-1908 -1916 0
-1908 -1917 0
-1908 -1918 0
-1908 -1919 0
-1908 -1920 0
-1908 -1921 0
-1908 -1922 0
-1908 -1923 0
-1908 -1924 0
-1908 -1925 0
-1908 -1926 0
-1908 -1927 0
-1908 -1928 0
-1908 -1929 0
-1908 -1930 0
-1908 -1931 0
-1908 -1932 0
-1908 -1933 0
-1908 -1934 0
-1908 -1935 0
-1908 -1936 0
-1908 -1937 0
-1908 -1938 0
-1908 -1939 0
-1908 -1940 0
-1908 -1941 0
-1908 -1942 0
-1908 -1943 0
-1908 -1944 0
-1908 -1945 0
-1908 -1946 0
-1908 -1947 0
-1908 -1948 0
-1908 -1949 0
-1908 -1950 0
-1908 -1951 0
-1908 -1952 0
-1908 -1953 0
-1908 -1954 0
-1908 -1955 0
-1908 -1956 0
-1908 -1957 0
-1908 -1958 0
-1908 -1959 0
-1908 -1960 0
-1909 -1910 0
-1909 -1911 0
-1909 -1912 0
-1909 -1913 0
-1909 -1914 0
-1909 -1915 0
-1909 -1916 0
-1909 -1917 0
-1909 -1918 0
-1909 -1919 0
-1909 -1920 0
-1909 -1921 0
-1909 -1922 0
-1909 -1923 0
-1909 -1924 0
-1909 -1925 0
-1909 -1926 0
-1909 -1927 0
-1909 -1928 0
-1909 -1929 0
-1909 -1930 0
-1909 -1931 0
-1909 -1932 0
-1909 -1933 0
-1909 -1934 0
-1909 -1935 0
-1909 -1936 0
-1909 -1937 0
-1909 -1938 0
-1909 -1939 0
-1909 -1940 0
-1909 -1941 0
-1909 -1942 0
-1909 -1943 0
-1909 -1944 0
-1909 -1945 0
-1909 -1946 0
-1909 -1947 0
-1909 -1948 0
-1909 -1949 0
-1909 -1950 0
-1909 -1951 0
-1909 -1952 0
-1909 -1953 0
-1909 -1954 0
-1909 -1955 0
-1909 -1956 0
-1909 -1957 0
-1909 -1958 0
-1909 -1959 0
-1909 -1960 0
-1910 -1911 0
-1910 -1912 0
-1910 -1913 0
-1910 -1914 0
-1910 -1915 0
-1910 -1916 0
-1910 -1917 0
-1910 -1918 0
-1910 -1919 0
-1910 -1920 0
-1910 -1921 0
-1910 -1922 0
-1910 -1923 0
-1910 -1924 0
-1910 -1925 0
-1910 -1926 0
-1910 -1927 0
-1910 -1928 0
-1910 -1929 0
-1910 -1930 0
-1910 -1931 0
-1910 -1932 0
-1910 -1933 0
-1910 -1934 0
-1910 -1935 0
-1910 -1936 0
-1910 -1937 0
-1910 -1938 0
-1910 -1939 0
-1910 -1940 0
-1910 -1941 0
-1910 -1942 0
-1910 -1943 0
-1910 -1944 0
-1910 -1945 0
-1910 -1946 0
-1910 -1947 0
-1910 -1948 0
-1910 -1949 0
-1910 -1950 0
-1910 -1951 0
-1910 -1952 0
-1910 -1953 0
-1910 -1954 0
-1910 -1955 0
-1910 -1956 0
-1910 -1957 0
-1910 -1958 0
-1910 -1959 0
-1910 -1960 0
-1911 -1912 0
-1911 -1913 0
-1911 -1914 0
-1911 -1915 0
-1911 -1916 0
-1911 -1917 0
-1911 -1918 0
-1911 -1919 0
-1911 -1920 0
-1911 -1921 0
-1911 -1922 0
-1911 -1923 0
-1911 -1924 0
-1911 -1925 0
-1911 -1926 0
-1911 -1927 0
-1911 -1928 0
-1911 -1929 0
-1911 -1930 0
-1911 -1931 0
-1911 -1932 0
-1911 -1933 0
-1911 -1934 0
-1911 -1935 0
-1911 -1936 0
-1911 -1937 0
-1911 -1938 0
-1911 -1939 0
-1911 -1940 0
-1911 -1941 0
-1911 -1942 0
-1911 -1943 0
-1911 -1944 0
-1911 -1945 0
-1911 -1946 0
-1911 -1947 0
-1911 -1948 0
-1911 -1949 0
-1911 -1950 0
-1911 -1951 0
-1911 -1952 0
-1911 -1953 0
-1911 -1954 0
-1911 -1955 0
-1911 -1956 0
-1911 -1957 0
-1911 -1958 0
-1911 -1959 0
-1911 -1960 0
-1912 -1913 0
-1912 -1914 0
-1912 -1915 0
-1912 -1916 0
-1912 -1917 0
-1912 -1918 0
-1912 -1919 0
-1912 -1920 0
-1912 -1921 0
-1912 -1922 0
-1912 -1923 0
-1912 -1924 0
-1912 -1925 0
-1912 -1926 0
-1912 -1927 0
-1912 -1928 0
-1912 -1929 0
-1912 -1930 0
-1912 -1931 0
-1912 -1932 0
-1912 -1933 0
-1912 -1934 0
-1912 -1935 0
-1912 -1936 0
-1912 -1937 0
-1912 -1938 0
-1912 -1939 0
-1912 -1940 0
-1912 -1941 0
-1912 -1942 0
-1912 -1943 0
-1912 -1944 0
-1912 -1945 0
-1912 -1946 0
-1912 -1947 0
-1912 -1948 0
-1912 -1949 0
-1912 -1950 0
-1912 -1951 0
-1912 -1952 0
-1912 -1953 0
-1912 -1954 0
-1912 -1955 0
-1912 -1956 0
-1912 -1957 0
-1912 -1958 0
-1912 -1959 0
-1912 -1960 0
-1913 -1914 0
-1913 -1915 0
-1913 -1916 0
-1913 -1917 0
-1913 -1918 0
-1913 -1919 0
-1913 -1920 0
-1913 -1921 0
-1913 -1922 0
-1913 -1923 0
-1913 -1924 0
-1913 -1925 0
-1913 -1926 0
-1913 -1927 0
-1913 -1928 0
-1913 -1929 0
-1913 -1930 0
-1913 -1931 0
-1913 -1932 0
-1913 -1933 0
-1913 -1934 0
-1913 -1935 0
-1913 -1936 0
-1913 -1937 0
-1913 -1938 0
-1913 -1939 0
-1913 -1940 0
-1913 -1941 0
-1913 -1942 0
-1913 -1943 0
-1913 -1944 0
-1913 -1945 0
-1913 -1946 0
-1913 -1947 0
-1913 -1948 0
-1913 -1949 0
-1913 -1950 0
-1913 -1951 0
-1913 -1952 0
-1913 -1953 0
-1913 -1954 0
-1913 -1955 0
-1913 -1956 0
-1913 -1957 0
-1913 -1958 0
-1913 -1959 0
-1913 -1960 0
-1914 -1915 0
-1914 -1916 0
-1914 -1917 0
-1914 -1918 0
-1914 -1919 0
-1914 -1920 0
-1914 -1921 0
-1914 -1922 0
-1914 -1923 0
-1914 -1924 0
-1914 -1925 0
-1914 -1926 0
-1914 -1927 0
-1914 -1928 0
-1914 -1929 0
-1914 -1930 0
-1914 -1931 0
-1914 -1932 0
-1914 -1933 0
-1914 -1934 0
-1914 -1935 0
-1914 -1936 0
-1914 -1937 0
-1914 -1938 0
-1914 -1939 0
-1914 -1940 0
-1914 -1941 0
-1914 -1942 0
-1914 -1943 0
-1914 -1944 0
-1914 -1945 0
-1914 -1946 0
-1914 -1947 0
-1914 -1948 0
-1914 -1949 0
-1914 -1950 0
-1914 -1951 0
-1914 -1952 0
-1914 -1953 0
-1914 -1954 0
-1914 -1955 0
-1914 -1956 0
-1914 -1957 0
-1914 -1958 0
-1914 -1959 0
-1914 -1960 0
-1915 -1916 0
-1915 -1917 0
-1915 -1918 0
-1915 -1919 0
-1915 -1920 0
-1915 -1921 0
-1915 -1922 0
-1915 -1923 0
-1915 -1924 0
-1915 -1925 0
-1915 -1926 0
-1915 -1927 0
-1915 -1928 0
-1915 -1929 0
-1915 -1930 0
-1915 -1931 0
-1915 -1932 0
-1915 -1933 0
-1915 -1934 0
-1915 -1935 0
-1915 -1936 0
-1915 -1937 0
-1915 -1938 0
-1915 -1939 0
-1915 -1940 0
-1915 -1941 0
-1915 -1942 0
-1915 -1943 0
-1915 -1944 0
-1915 -1945 0
-1915 -1946 0
-1915 -1947 0
-1915 -1948 0
-1915 -1949 0
-1915 -1950 0
-1915 -1951 0
-1915 -1952 0
-1915 -1953 0
-1915 -1954 0
-1915 -1955 0
-1915 -1956 0
-1915 -1957 0
-1915 -1958 0
-1915 -1959 0
-1915 -1960 0
-1916 -1917 0
-1916 -1918 0
-1916 -1919 0
-1916 -1920 0
-1916 -1921 0
-1916 -1922 0
-1916 -1923 0
-1916 -1924 0
-1916 -1925 0
-1916 -1926 0
-1916 -1927 0
-1916 -1928 0
-1916 -1929 0
-1916 -1930 0
-1916 -1931 0
-1916 -1932 0
-1916 -1933 0
-1916 -1934 0
-1916 -1935 0
-1916 -1936 0
-1916 -1937 0
-1916 -1938 0
-1916 -1939 0
-1916 -1940 0
-1916 -1941 0
-1916 -1942 0
-1916 -1943 0
-1916 -1944 0
-1916 -1945 0
-1916 -1946 0
-1916 -1947 0
-1916 -1948 0
-1916 -1949 0
-1916 -1950 0
-1916 -1951 0
-1916 -1952 0
-1916 -1953 0
-1916 -1954 0
-1916 -1955 0
-1916 -1956 0
-1916 -1957 0
-1916 -1958 0
-1916 -1959 0
-1916 -1960 0
-1917 -1918 0
-1917 -1919 0
-1917 -1920 0
-1917 -1921 0
-1917 -1922 0
-1917 -1923 0
-1917 -1924 0
-1917 -1925 0
-1917 -1926 0
-1917 -1927 0
-1917 -1928 0
-1917 -1929 0
-1917 -1930 0
-1917 -1931 0
-1917 -1932 0
-1917 -1933 0
-1917 -1934 0
-1917 -1935 0
-1917 -1936 0
-1917 -1937 0
-1917 -1938 0
-1917 -1939 0
-1917 -1940 0
-1917 -1941 0
-1917 -1942 0
-1917 -1943 0
-1917 -1944 0
-1917 -1945 0
-1917 -1946 0
-1917 -1947 0
-1917 -1948 0
-1917 -1949 0
-1917 -1950 0
-1917 -1951 0
-1917 -1952 0
-1917 -1953 0
-1917 -1954 0
-1917 -1955 0
-1917 -1956 0
-1917 -1957 0
-1917 -1958 0
-1917 -1959 0
-1917 -1960 0
-1918 -1919 0
-1918 -1920 0
-1918 -1921 0
-1918 -1922 0
-1918 -1923 0
-1918 -1924 0
-1918 -1925 0
-1918 -1926 0
-1918 -1927 0
-1918 -1928 0
-1918 -1929 0
-1918 -1930 0
-1918 -1931 0
-1918 -1932 0
-1918 -1933 0
-1918 -1934 0
-1918 -1935 0
-1918 -1936 0
-1918 -1937 0
-1918 -1938 0
-1918 -1939 0
-1918 -1940 0
-1918 -1941 0
-1918 -1942 0
-1918 -1943 0
-1918 -1944 0
-1918 -1945 0
-1918 -1946 0
-1918 -1947 0
-1918 -1948 0
-1918 -1949 0
-1918 -1950 0
-1918 -1951 0
-1918 -1952 0
-1918 -1953 0
-1918 -1954 0
-1918 -1955 0
-1918 -1956 0
-1918 -1957 0
-1918 -1958 0
-1918 -1959 0
-1918 -1960 0
-1919 -1920 0
-1919 -1921 0
-1919 -1922 0
-1919 -1923 0
-1919 -1924 0
-1919 -1925 0
-1919 -1926 0
-1919 -1927 0
-1919 -1928 0
-1919 -1929 0
-1919 -1930 0
-1919 -1931 0
-1919 -1932 0
-1919 -1933 0
-1919 -1934 0
-1919 -1935 0
-1919 -1936 0
-1919 -1937 0
-1919 -1938 0
-1919 -1939 0
-1919 -1940 0
-1919 -1941 0
-1919 -1942 0
-1919 -1943 0
-1919 -1944 0
-1919 -1945 0
-1919 -1946 0
-1919 -1947 0
-1919 -1948 0
-1919 -1949 0
-1919 -1950 0
-1919 -1951 0
-1919 -1952 0
-1919 -1953 0
-1919 -1954 0
-1919 -1955 0
-1919 -1956 0
-1919 -1957 0
-1919 -1958 0
-1919 -1959 0
-1919 -1960 0
-1920 -1921 0
-1920 -1922 0
-1920 -1923 0
-1920 -1924 0
-1920 -1925 0
-1920 -1926 0
-1920 -1927 0
-1920 -1928 0
-1920 -1929 0
-1920 -1930 0
-1920 -1931 0
-1920 -1932 0
-1920 -1933 0
-1920 -1934 0
-1920 -1935 0
-1920 -1936 0
-1920 -1937 0
-1920 -1938 0
-1920 -1939 0
-1920 -1940 0
-1920 -1941 0
-1920 -1942 0
-1920 -1943 0
-1920 -1944 0
-1920 -1945 0
-1920 -1946 0
-1920 -1947 0
-1920 -1948 0
-1920 -1949 0
-1920 -1950 0
-1920 -1951 0
-1920 -1952 0
-1920 -1953 0
-1920 -1954 0
-1920 -1955 0
-1920 -1956 0
-1920 -1957 0
-1920 -1958 0
-1920 -1959 0
-1920 -1960 0
-1921 -1922 0
-1921 -1923 0
-1921 -1924 0
-1921 -1925 0
-1921 -1926 0
-1921 -1927 0
-1921 -1928 0
-1921 -1929 0
-1921 -1930 0
-1921 -1931 0
-1921 -1932 0
-1921 -1933 0
-1921 -1934 0
-1921 -1935 0
-1921 -1936 0
-1921 -1937 0
-1921 -1938 0
-1921 -1939 0
-1921 -1940 0
-1921 -1941 0
-1921 -1942 0
-1921 -1943 0
-1921 -1944 0
-1921 -1945 0
-1921 -1946 0
-1921 -1947 0
-1921 -1948 0
-1921 -1949 0
-1921 -1950 0
-1921 -1951 0
-1921 -1952 0
-1921 -1953 0
-1921 -1954 0
-1921 -1955 0
-1921 -1956 0
-1921 -1957 0
-1921 -1958 0
-1921 -1959 0
-1921 -1960 0
-1922 -1923 0
-1922 -1924 0
-1922 -1925 0
-1922 -1926 0
-1922 -1927 0
-1922 -1928 0
-1922 -1929 0
-1922 -1930 0
-1922 -1931 0
-1922 -1932 0
-1922 -1933 0
-1922 -1934 0
-1922 -1935 0
-1922 -1936 0
-1922 -1937 0
-1922 -1938 0
-1922 -1939 0
-1922 -1940 0
-1922 -1941 0
-1922 -1942 0
-1922 -1943 0
-1922 -1944 0
-1922 -1945 0
-1922 -1946 0
-1922 -1947 0
-1922 -1948 0
-1922 -1949 0
-1922 -1950 0
-1922 -1951 0
-1922 -1952 0
-1922 -1953 0
-1922 -1954 0
-1922 -1955 0
-1922 -1956 0
-1922 -1957 0
-1922 -1958 0
-1922 -1959 0
-1922 -1960 0
-1923 -1924 0
-1923 -1925 0
-1923 -1926 0
-1923 -1927 0
-1923 -1928 0
-1923 -1929 0
-1923 -1930 0
-1923 -1931 0
-1923 -1932 0
-1923 -1933 0
-1923 -1934 0
-1923 -1935 0
-1923 -1936 0
-1923 -1937 0
-1923 -1938 0
-1923 -1939 0
-1923 -1940 0
-1923 -1941 0
-1923 -1942 0
-1923 -1943 0
-1923 -1944 0
-1923 -1945 0
-1923 -1946 0
-1923 -1947 0
-1923 -1948 0
-1923 -1949 0
-1923 -1950 0
-1923 -1951 0
-1923 -1952 0
-1923 -1953 0
-1923 -1954 0
-1923 -1955 0
-1923 -1956 0
-1923 -1957 0
-1923 -1958 0
-1923 -1959 0
-1923 -1960 0
-1924 -1925 0
-1924 -1926 0
-1924 -1927 0
-1924 -1928 0
-1924 -1929 0
-1924 -1930 0
-1924 -1931 0
-1924 -1932 0
-1924 -1933 0
-1924 -1934 0
-1924 -1935 0
-1924 -1936 0
-1924 -1937 0
-1924 -1938 0
-1924 -1939 0
-1924 -1940 0
-1924 -1941 0
-1924 -1942 0
-1924 -1943 0
-1924 -1944 0
-1924 -1945 0
-1924 -1946 0
-1924 -1947 0
-1924 -1948 0
-1924 -1949 0
-1924 -1950 0
-1924 -1951 0
-1924 -1952 0
-1924 -1953 0
-1924 -1954 0
-1924 -1955 0
-1924 -1956 0
-1924 -1957 0
-1924 -1958 0
-1924 -1959 0
-1924 -1960 0
-1925 -1926 0
-1925 -1927 0
-1925 -1928 0
-1925 -1929 0
-1925 -1930 0
-1925 -1931 0
-1925 -1932 0
-1925 -1933 0
-1925 -1934 0
-1925 -1935 0
-1925 -1936 0
-1925 -1937 0
-1925 -1938 0
-1925 -1939 0
-1925 -1940 0
-1925 -1941 0
-1925 -1942 0
-1925 -1943 0
-1925 -1944 0
-1925 -1945 0
-1925 -1946 0
-1925 -1947 0
-1925 -1948 0
-1925 -1949 0
-1925 -1950 0
-1925 -1951 0
-1925 -1952 0
-1925 -1953 0
-1925 -1954 0
-1925 -1955 0
-1925 -1956 0
-1925 -1957 0
-1925 -1958 0
-1925 -1959 0
-1925 -1960 0
-1926 -1927 0
-1926 -1928 0
-1926 -1929 0
-1926 -1930 0
-1926 -1931 0
-1926 -1932 0
-1926 -1933 0
-1926 -1934 0
-1926 -1935 0
-1926 -1936 0
-1926 -1937 0
-1926 -1938 0
-1926 -1939 0
-1926 -1940 0
-1926 -1941 0
-1926 -1942 0
-1926 -1943 0
-1926 -1944 0
-1926 -1945 0
-1926 -1946 0
-1926 -1947 0
-1926 -1948 0
-1926 -1949 0
-1926 -1950 0
-1926 -1951 0
-1926 -1952 0
-1926 -1953 0
-1926 -1954 0
-1926 -1955 0
-1926 -1956 0
-1926 -1957 0
-1926 -1958 0
-1926 -1959 0
-1926 -1960 0
-1927 -1928 0
-1927 -1929 0
-1927 -1930 0
-1927 -1931 0
-1927 -1932 0
-1927 -1933 0
-1927 -1934 0
-1927 -1935 0
-1927 -1936 0
-1927 -1937 0
-1927 -1938 0
-1927 -1939 0
-1927 -1940 0
-1927 -1941 0
-1927 -1942 0
-1927 -1943 0
-1927 -1944 0
-1927 -1945 0
-1927 -1946 0
-1927 -1947 0
-1927 -1948 0
-1927 -1949 0
-1927 -1950 0
-1927 -1951 0
-1927 -1952 0
-1927 -1953 0
-1927 -1954 0
-1927 -1955 0
-1927 -1956 0
-1927 -1957 0
-1927 -1958 0
-1927 -1959 0
-1927 -1960 0
-1928 -1929 0
-1928 -1930 0
-1928 -1931 0
-1928 -1932 0
-1928 -1933 0
-1928 -1934 0
-1928 -1935 0
-1928 -1936 0
-1928 -1937 0
-1928 -1938 0
-1928 -1939 0
-1928 -1940 0
-1928 -1941 0
-1928 -1942 0
-1928 -1943 0
-1928 -1944 0
-1928 -1945 0
-1928 -1946 0
-1928 -1947 0
-1928 -1948 0
-1928 -1949 0
-1928 -1950 0
-1928 -1951 0
-1928 -1952 0
-1928 -1953 0
-1928 -1954 0
-1928 -1955 0
-1928 -1956 0
-1928 -1957 0
-1928 -1958 0
-1928 -1959 0
-1928 -1960 0
-1929 -1930 0
-1929 -1931 0
-1929 -1932 0
-1929 -1933 0
-1929 -1934 0
-1929 -1935 0
-1929 -1936 0
-1929 -1937 0
-1929 -1938 0
-1929 -1939 0
-1929 -1940 0
-1929 -1941 0
-1929 -1942 0
-1929 -1943 0
-1929 -1944 0
-1929 -1945 0
-1929 -1946 0
-1929 -1947 0
-1929 -1948 0
-1929 -1949 0
-1929 -1950 0
-1929 -1951 0
-1929 -1952 0
-1929 -1953 0
-1929 -1954 0
-1929 -1955 0
-1929 -1956 0
-1929 -1957 0
-1929 -1958 0
-1929 -1959 0
-1929 -1960 0
-1930 -1931 0
-1930 -1932 0
-1930 -1933 0
-1930 -1934 0
-1930 -1935 0
-1930 -1936 0
-1930 -1937 0
-1930 -1938 0
-1930 -1939 0
-1930 -1940 0
-1930 -1941 0
-1930 -1942 0
-1930 -1943 0
-1930 -1944 0
-1930 -1945 0
-1930 -1946 0
-1930 -1947 0
-1930 -1948 0
-1930 -1949 0
-1930 -1950 0
-1930 -1951 0
-1930 -1952 0
-1930 -1953 0
-1930 -1954 0
-1930 -1955 0
-1930 -1956 0
-1930 -1957 0
-1930 -1958 0
-1930 -1959 0
-1930 -1960 0
-1931 -1932 0
-1931 -1933 0
-1931 -1934 0
-1931 -1935 0
-1931 -1936 0
-1931 -1937 0
-1931 -1938 0
-1931 -1939 0
-1931 -1940 0
-1931 -1941 0
-1931 -1942 0
-1931 -1943 0
-1931 -1944 0
-1931 -1945 0
-1931 -1946 0
-1931 -1947 0
-1931 -1948 0
-1931 -1949 0
-1931 -1950 0
-1931 -1951 0
-1931 -1952 0
-1931 -1953 0
-1931 -1954 0
-1931 -1955 0
-1931 -1956 0
-1931 -1957 0
-1931 -1958 0
-1931 -1959 0
-1931 -1960 0
-1932 -1933 0
-1932 -1934 0
-1932 -1935 0
-1932 -1936 0
-1932 -1937 0
-1932 -1938 0
-1932 -1939 0
-1932 -1940 0
-1932 -1941 0
-1932 -1942 0
-1932 -1943 0
-1932 -1944 0
-1932 -1945 0
-1932 -1946 0
-1932 -1947 0
-1932 -1948 0
-1932 -1949 0
-1932 -1950 0
-1932 -1951 0
-1932 -1952 0
-1932 -1953 0
-1932 -1954 0
-1932 -1955 0
-1932 -1956 0
-1932 -1957 0
-1932 -1958 0
-1932 -1959 0
-1932 -1960 0
-1933 -1934 0
-1933 -1935 0
-1933 -1936 0
-1933 -1937 0
-1933 -1938 0
-1933 -1939 0
-1933 -1940 0
-1933 -1941 0
-1933 -1942 0
-1933 -1943 0
-1933 -1944 0
-1933 -1945 0
-1933 -1946 0
-1933 -1947 0
-1933 -1948 0
-1933 -1949 0
-1933 -1950 0
-1933 -1951 0
-1933 -1952 0
-1933 -1953 0
-1933 -1954 0
-1933 -1955 0
-1933 -1956 0
-1933 -1957 0
-1933 -1958 0
-1933 -1959 0
-1933 -1960 0
-1934 -1935 0
-1934 -1936 0
-1934 -1937 0
-1934 -1938 0
-1934 -1939 0
-1934 -1940 0
-1934 -1941 0
-1934 -1942 0
-1934 -1943 0
-1934 -1944 0
-1934 -1945 0
-1934 -1946 0
-1934 -1947 0
-1934 -1948 0
-1934 -1949 0
-1934 -1950 0
-1934 -1951 0
-1934 -1952 0
-1934 -1953 0
-1934 -1954 0
-1934 -1955 0
-1934 -1956 0
-1934 -1957 0
-1934 -1958 0
-1934 -1959 0
-1934 -1960 0
-1935 -1936 0
-1935 -1937 0
-1935 -1938 0
-1935 -1939 0
-1935 -1940 0
-1935 -1941 0
-1935 -1942 0
-1935 -1943 0
-1935 -1944 0
-1935 -1945 0
-1935 -1946 0
-1935 -1947 0
-1935 -1948 0
-1935 -1949 0
-1935 -1950 0
-1935 -1951 0
-1935 -1952 0
-1935 -1953 0
-1935 -1954 0
-1935 -1955 0
-1935 -1956 0
-1935 -1957 0
-1935 -1958 0
-1935 -1959 0
-1935 -1960 0
-1936 -1937 0
-1936 -1938 0
-1936 -1939 0
-1936 -1940 0
-1936 -1941 0
-1936 -1942 0
-1936 -1943 0
-1936 -1944 0
-1936 -1945 0
-1936 -1946 0
-1936 -1947 0
-1936 -1948 0
-1936 -1949 0
-1936 -1950 0
-1936 -1951 0
-1936 -1952 0
-1936 -1953 0
-1936 -1954 0
-1936 -1955 0
-1936 -1956 0
-1936 -1957 0
-1936 -1958 0
-1936 -1959 0
-1936 -1960 0
-1937 -1938 0
-1937 -1939 0
-1937 -1940 0
-1937 -1941 0
-1937 -1942 0
-1937 -1943 0
-1937 -1944 0
-1937 -1945 0
-1937 -1946 0
-1937 -1947 0
-1937 -1948 0
-1937 -1949 0
-1937 -1950 0
-1937 -1951 0
-1937 -1952 0
-1937 -1953 0
-1937 -1954 0
-1937 -1955 0
-1937 -1956 0
-1937 -1957 0
-1937 -1958 0
-1937 -1959 0
-1937 -1960 0
-1938 -1939 0
-1938 -1940 0
-1938 -1941 0
-1938 -1942 0
-1938 -1943 0
-1938 -1944 0
-1938 -1945 0
-1938 -1946 0
-1938 -1947 0
-1938 -1948 0
-1938 -1949 0
-1938 -1950 0
-1938 -1951 0
-1938 -1952 0
-1938 -1953 0
-1938 -1954 0
-1938 -1955 0
-1938 -1956 0
-1938 -1957 0
-1938 -1958 0
-1938 -1959 0
-1938 -1960 0
-1939 -1940 0
-1939 -1941 0
-1939 -1942 0
-1939 -1943 0
-1939 -1944 0
-1939 -1945 0
-1939 -1946 0
-1939 -1947 0
-1939 -1948 0
-1939 -1949 0
-1939 -1950 0
-1939 -1951 0
-1939 -1952 0
-1939 -1953 0
-1939 -1954 0
-1939 -1955 0
-1939 -1956 0
-1939 -1957 0
-1939 -1958 0
-1939 -1959 0
-1939 -1960 0
-1940 -1941 0
-1940 -1942 0
-1940 -1943 0
-1940 -1944 0
-1940 -1945 0
-1940 -1946 0
-1940 -1947 0
-1940 -1948 0
-1940 -1949 0
-1940 -1950 0
-1940 -1951 0
-1940 -1952 0
-1940 -1953 0
-1940 -1954 0
-1940 -1955 0
-1940 -1956 0
-1940 -1957 0
-1940 -1958 0
-1940 -1959 0
-1940 -1960 0
-1941 -1942 0
-1941 -1943 0
-1941 -1944 0
-1941 -1945 0
-1941 -1946 0
-1941 -1947 0
-1941 -1948 0
-1941 -1949 0
-1941 -1950 0
-1941 -1951 0
-1941 -1952 0
-1941 -1953 0
-1941 -1954 0
-1941 -1955 0
-1941 -1956 0
-1941 -1957 0
-1941 -1958 0
-1941 -1959 0
-1941 -1960 0
-1942 -1943 0
-1942 -1944 0
-1942 -1945 0
-1942 -1946 0
-1942 -1947 0
-1942 -1948 0
-1942 -1949 0
-1942 -1950 0
-1942 -1951 0
-1942 -1952 0
-1942 -1953 0
-1942 -1954 0
-1942 -1955 0
-1942 -1956 0
-1942 -1957 0
-1942 -1958 0
-1942 -1959 0
-1942 -1960 0
-1943 -1944 0
-1943 -1945 0
-1943 -1946 0
-1943 -1947 0
-1943 -1948 0
-1943 -1949 0
-1943 -1950 0
-1943 -1951 0
-1943 -1952 0
-1943 -1953 0
-1943 -1954 0
-1943 -1955 0
-1943 -1956 0
-1943 -1957 0
-1943 -1958 0
-1943 -1959 0
-1943 -1960 0
-1944 -1945 0
-1944 -1946 0
-1944 -1947 0
-1944 -1948 0
-1944 -1949 0
-1944 -1950 0
-1944 -1951 0
-1944 -1952 0
-1944 -1953 0
-1944 -1954 0
-1944 -1955 0
-1944 -1956 0
-1944 -1957 0
-1944 -1958 0
-1944 -1959 0
-1944 -1960 0
-1945 -1946 0
-1945 -1947 0
-1945 -1948 0
-1945 -1949 0
-1945 -1950 0
-1945 -1951 0
-1945 -1952 0
-1945 -1953 0
-1945 -1954 0
-1945 -1955 0
-1945 -1956 0
-1945 -1957 0
-1945 -1958 0
-1945 -1959 0
-1945 -1960 0
-1946 -1947 0
-1946 -1948 0
-1946 -1949 0
-1946 -1950 0
-1946 -1951 0
-1946 -1952 0
-1946 -1953 0
-1946 -1954 0
-1946 -1955 0
-1946 -1956 0
-1946 -1957 0
-1946 -1958 0
-1946 -1959 0
-1946 -1960 0
-1947 -1948 0
-1947 -1949 0
-1947 -1950 0
-1947 -1951 0
-1947 -1952 0
-1947 -1953 0
-1947 -1954 0
-1947 -1955 0
-1947 -1956 0
-1947 -1957 0
-1947 -1958 0
-1947 -1959 0
-1947 -1960 0
-1948 -1949 0
-1948 -1950 0
-1948 -1951 0
-1948 -1952 0
-1948 -1953 0
-1948 -1954 0
-1948 -1955 0
-1948 -1956 0
-1948 -1957 0
-1948 -1958 0
-1948 -1959 0
-1948 -1960 0
-1949 -1950 0
-1949 -1951 0
-1949 -1952 0
-1949 -1953 0
-1949 -1954 0
-1949 -1955 0
-1949 -1956 0
-1949 -1957 0
-1949 -1958 0
-1949 -1959 0
-1949 -1960 0
-1950 -1951 0
-1950 -1952 0
-1950 -1953 0
-1950 -1954 0
-1950 -1955 0
-1950 -1956 0
-1950 -1957 0
-1950 -1958 0
-1950 -1959 0
-1950 -1960 0
-1951 -1952 0
-1951 -1953 0
-1951 -1954 0
-1951 -1955 0
-1951 -1956 0
-1951 -1957 0
-1951 -1958 0
-1951 -1959 0
-1951 -1960 0
-1952 -1953 0
-1952 -1954 0
-1952 -1955 0
-1952 -1956 0
-1952 -1957 0
-1952 -1958 0
-1952 -1959 0
-1952 -1960 0
-1953 -1954 0
-1953 -1955 0
-1953 -1956 0
-1953 -1957 0
-1953 -1958 0
-1953 -1959 0
-1953 -1960 0
-1954 -1955 0
-1954 -1956 0
-1954 -1957 0
-1954 -1958 0
-1954 -1959 0
-1954 -1960 0
-1955 -1956 0
-1955 -1957 0
-1955 -1958 0
-1955 -1959 0
-1955 -1960 0
-1956 -1957 0
-1956 -1958 0
-1956 -1959 0
-1956 -1960 0
-1957 -1958 0
-1957 -1959 0
-1957 -1960 0
-1958 -1959 0
-1958 -1960 0
-1959 -1960 0
-1842 57 1902 0
-1842 -57 1901 0
-1843 57 1903 0
-1843 -57 1902 0
-1844 57 1904 0
-1844 -57 1903 0
-1845 57 1905 0
-1845 -57 1904 0
-1846 57 1906 0
-1846 -57 1905 0
-1847 57 1907 0
-1847 -57 1906 0
-1848 57 1908 0
-1848 -57 1907 0
-1849 57 1909 0
-1849 -57 1908 0
-1850 57 1910 0
-1850 -57 1909 0
-1851 57 1911 0
-1851 -57 1910 0
-1852 57 1912 0
-1852 -57 1911 0
-1853 57 1913 0
-1853 -57 1912 0
-1854 57 1914 0
-1854 -57 1913 0
-1855 57 1915 0
-1855 -57 1914 0
-1856 57 1916 0
-1856 -57 1915 0
-1857 57 1917 0
-1857 -57 1916 0
-1858 57 1918 0
-1858 -57 1917 0
-1859 57 1919 0
-1859 -57 1918 0
-1860 57 1920 0
-1860 -57 1919 0
-1861 57 1921 0
-1861 -57 1920 0
-1862 57 1922 0
-1862 -57 1921 0
-1863 57 1923 0
-1863 -57 1922 0
-1864 57 1924 0
-1864 -57 1923 0
-1865 57 1925 0
-1865 -57 1924 0
-1866 57 1926 0
-1866 -57 1925 0
-1867 57 1927 0
-1867 -57 1926 0
-1868 57 1928 0
-1868 -57 1927 0
-1869 57 1929 0
-1869 -57 1928 0
-1870 57 1930 0
-1870 -57 1929 0
-1871 57 1931 0
-1871 -57 1930 0
-1872 57 1932 0
-1872 -57 1931 0
-1873 57 1933 0
-1873 -57 1932 0
-1874 57 1934 0
-1874 -57 1933 0
-1875 57 1935 0
-1875 -57 1934 0
-1876 57 1936 0
-1876 -57 1935 0
-1877 57 1937 0
-1877 -57 1936 0
-1878 57 1938 0
-1878 -57 1937 0
-1879 57 1939 0
-1879 -57 1938 0
-1880 57 1940 0
-1880 -57 1939 0
-1881 57 1941 0
-1881 -57 1940 0
-1882 57 1942 0
-1882 -57 1941 0
-1883 57 1943 0
-1883 -57 1942 0
-1884 57 1944 0
-1884 -57 1943 0
-1885 57 1945 0
-1885 -57 1944 0
-1886 57 1946 0
-1886 -57 1945 0
-1887 57 1947 0
-1887 -57 1946 0
-1888 57 1948 0
-1888 -57 1947 0
-1889 57 1949 0
-1889 -57 1948 0
-1890 57 1950 0
-1890 -57 1949 0
-1891 57 1951 0
-1891 -57 1950 0
-1892 57 1952 0
-1892 -57 1951 0
-1893 57 1953 0
-1893 -57 1952 0
-1894 57 1954 0
-1894 -57 1953 0
-1895 57 1955 0
-1895 -57 1954 0
-1896 57 1956 0
-1896 -57 1955 0
-1897 57 1957 0
-1897 -57 1956 0
-1898 57 1958 0
-1898 -57 1957 0
-1899 57 1959 0
-1899 -57 1958 0
-1900 57 1960 0
-1900 -57 1959 0
1961 1962 1963 1964 1965 1966 1967 1968 1969 1970 1971 1972 1973 1974 1975 1976 1977 1978 1979 1980 1981 1982 1983 1984 1985 1986 1987 1988 1989 1990 1991 1992 1993 1994 1995 1996 1997 1998 1999 2000 2001 2002 2003 2004 2005 2006 2007 2008 2009 2010 2011 2012 2013 2014 2015 2016 2017 2018 2019 2020 2021 0
-1961 -1962 0
-1961 -1963 0
-1961 -1964 0
-1961 -1965 0
-1961 -1966 0
-1961 -1967 0
-1961 -1968 0
-1961 -1969 0
-1961 -1970 0
-1961 -1971 0
-1961 -1972 0
-1961 -1973 0
-1961 -1974 0
-1961 -1975 0
-1961 -1976 0
-1961 -1977 0
-1961 -1978 0
-1961 -1979 0
-1961 -1980 0
-1961 -1981 0
-1961 -1982 0
-1961 -1983 0
-1961 -1984 0
-1961 -1985 0
-1961 -1986 0
-1961 -1987 0
-1961 -1988 0
-1961 -1989 0
-1961 -1990 0
-1961 -1991 0
-1961 -1992 0
-1961 -1993 0
-1961 -1994 0
-1961 -1995 0
-1961 -1996 0
-1961 -1997 0
-1961 -1998 0
-1961 -1999 0
-1961 -2000 0
-1961 -2001 0
-1961 -2002 0
-1961 -2003 0
-1961 -2004 0
-1961 -2005 0
-1961 -2006 0
-1961 -2007 0
-1961 -2008 0
-1961 -2009 0
-1961 -2010 0
-1961 -2011 0
-1961 -2012 0
-1961 -2013 0
-1961 -2014 0
-1961 -2015 0
-1961 -2016 0
-1961 -2017 0
-1961 -2018 0
-1961 -2019 0
-1961 -2020 0
-1961 -2021 0
-1962 -1963 0
-1962 -1964 0
-1962 -1965 0
-1962 -1966 0
-1962 -1967 0
-1962 -1968 0
-1962 -1969 0
-1962 -1970 0
-1962 -1971 0
-1962 -1972 0
-1962 -1973 0
-1962 -1974 0
-1962 -1975 0
-1962 -1976 0
-1962 -1977 0
-1962 -1978 0
-1962 -1979 0
-1962 -1980 0
-1962 -1981 0
-1962 -1982 0
-1962 -1983 0
-1962 -1984 0
-1962 -1985 0
-1962 -1986 0
-1962 -1987 0
-1962 -1988 0
-1962 -1989 0
-1962 -1990 0
-1962 -1991 0
-1962 -1992 0
-1962 -1993 0
-1962 -1994 0
-1962 -1995 0
-1962 -1996 0
-1962 -1997 0
-1962 -1998 0
-1962 -1999 0
-1962 -2000 0
-1962 -2001 0
-1962 -2002 0
-1962 -2003 0
-1962 -2004 0
-1962 -2005 0
-1962 -2006 0
-1962 -2007 0
-1962 -2008 0
-1962 -2009 0
-1962 -2010 0
-1962 -2011 0
-1962 -2012 0
-1962 -2013 0
-1962 -2014 0
-1962 -2015 0
-1962 -2016 0
-1962 -2017 0
-1962 -2018 0
-1962 -2019 0
-1962 -2020 0
-1962 -2021 0
-1963 -1964 0
-1963 -1965 0
-1963 -1966 0
-1963 -1967 0
-1963 -1968 0
-1963 -1969 0
-1963 -1970 0
-1963 -1971 0
-1963 -1972 0
-1963 -1973 0
-1963 -1974 0
-1963 -1975 0
-1963 -1976 0
-1963 -1977 0
-1963 -1978 0
-1963 -1979 0
-1963 -1980 0
-1963 -1981 0
-1963 -1982 0
-1963 -1983 0
-1963 -1984 0
-1963 -1985 0
-1963 -1986 0
-1963 -1987 0
-1963 -1988 0
-1963 -1989 0
-1963 -1990 0
-1963 -1991 0
-1963 -1992 0
-1963 -1993 0
-1963 -1994 0
-1963 -1995 0
-1963 -1996 0
-1963 -1997 0
-1963 -1998 0
-1963 -1999 0
-1963 -2000 0
-1963 -2001 0
-1963 -2002 0
-1963 -2003 0
-1963 -2004 0
-1963 -2005 0
-1963 -2006 0
-1963 -2007 0
-1963 -2008 0
-1963 -2009 0
-1963 -2010 0
-1963 -2011 0
-1963 -2012 0
-1963 -2013 0
-1963 -2014 0
-1963 -2015 0
-1963 -2016 0
-1963 -2017 0
-1963 -2018 0
-1963 -2019 0
-1963 -2020 0
-1963 -2021 0
-1964 -1965 0
-1964 -1966 0
-1964 -1967 0
-1964 -1968 0
-1964 -1969 0
-1964 -1970 0
-1964 -1971 0
-1964 -1972 0
-1964 -1973 0
-1964 -1974 0
-1964 -1975 0
-1964 -1976 0
-1964 -1977 0
-1964 -1978 0
-1964 -1979 0
-1964 -1980 0
-1964 -1981 0
-1964 -1982 0
-1964 -1983 0
-1964 -1984 0
-1964 -1985 0
-1964 -1986 0
-1964 -1987 0
-1964 -1988 0
-1964 -1989 0
-1964 -1990 0
-1964 -1991 0
-1964 -1992 0
-1964 -1993 0
-1964 -1994 0
-1964 -1995 0
-1964 -1996 0
-1964 -1997 0
-1964 -1998 0
-1964 -1999 0
-1964 -2000 0
-1964 -2001 0
-1964 -2002 0
-1964 -2003 0
-1964 -2004 0
-1964 -2005 0
-1964 -2006 0
-1964 -2007 0
-1964 -2008 0
-1964 -2009 0
-1964 -2010 0
-1964 -2011 0
-1964 -2012 0
-1964 -2013 0
-1964 -2014 0
-1964 -2015 0
-1964 -2016 0
-1964 -2017 0
-1964 -2018 0
-1964 -2019 0
-1964 -2020 0
-1964 -2021 0
-1965 -1966 0
-1965 -1967 0
-1965 -1968 0
-1965 -1969 0
-1965 -1970 0
-1965 -1971 0
-1965 -1972 0
-1965 -1973 0
-1965 -1974 0
-1965 -1975 0
-1965 -1976 0
-1965 -1977 0
-1965 -1978 0
-1965 -1979 0
-1965 -1980 0
-1965 -1981 0
-1965 -1982 0
-1965 -1983 0
-1965 -1984 0
-1965 -1985 0
-1965 -1986 0
-1965 -1987 0
-1965 -1988 0
-1965 -1989 0
-1965 -1990 0
-1965 -1991 0
-1965 -1992 0
-1965 -1993 0
-1965 -1994 0
-1965 -1995 0
-1965 -1996 0
-1965 -1997 0
-1965 -1998 0
-1965 -1999 0
-1965 -2000 0
-1965 -2001 0
-1965 -2002 0
-1965 -2003 0
-1965 -2004 0
-1965 -2005 0
-1965 -2006 0
-1965 -2007 0
-1965 -2008 0
-1965 -2009 0
-1965 -2010 0
-1965 -2011 0
-1965 -2012 0
-1965 -2013 0
-1965 -2014 0
-1965 -2015 0
-1965 -2016 0
-1965 -2017 0
-1965 -2018 0
-1965 -2019 0
-1965 -2020 0
-1965 -2021 0
-1966 -1967 0
-1966 -1968 0
-1966 -1969 0
-1966 -1970 0
-1966 -1971 0
-1966 -1972 0
-1966 -1973 0
-1966 -1974 0
-1966 -1975 0
-1966 -1976 0
-1966 -1977 0
-1966 -1978 0
-1966 -1979 0
-1966 -1980 0
-1966 -1981 0
-1966 -1982 0
-1966 -1983 0
-1966 -1984 0
-1966 -1985 0
-1966 -1986 0
-1966 -1987 0
-1966 -1988 0
-1966 -1989 0
-1966 -1990 0
-1966 -1991 0
-1966 -1992 0
-1966 -1993 0
-1966 -1994 0
-1966 -1995 0
-1966 -1996 0
-1966 -1997 0
-1966 -1998 0
-1966 -1999 0
-1966 -2000 0
-1966 -2001 0
-1966 -2002 0
-1966 -2003 0
-1966 -2004 0
-1966 -2005 0
-1966 -2006 0
-1966 -2007 0
-1966 -2008 0
-1966 -2009 0
-1966 -2010 0
-1966 -2011 0
-1966 -2012 0
-1966 -2013 0
-1966 -2014 0
-1966 -2015 0
-1966 -2016 0
-1966 -2017 0
-1966 -2018 0
-1966 -2019 0
-1966 -2020 0
-1966 -2021 0
-1967 -1968 0
-1967 -1969 0
-1967 -1970 0
-1967 -1971 0
-1967 -1972 0
-1967 -1973 0
-1967 -1974 0
-1967 -1975 0
-1967 -1976 0
-1967 -1977 0
-1967 -1978 0
-1967 -1979 0
-1967 -1980 0
-1967 -1981 0
-1967 -1982 0
-1967 -1983 0
-1967 -1984 0
-1967 -1985 0
-1967 -1986 0
-1967 -1987 0
-1967 -1988 0
-1967 -1989 0
-1967 -1990 0
-1967 -1991 0
-1967 -1992 0
-1967 -1993 0
-1967 -1994 0
-1967 -1995 0
-1967 -1996 0
-1967 -1997 0
-1967 -1998 0
-1967 -1999 0
-1967 -2000 0
-1967 -2001 0
-1967 -2002 0
-1967 -2003 0
-1967 -2004 0
-1967 -2005 0
-1967 -2006 0
-1967 -2007 0
-1967 -2008 0
-1967 -2009 0
-1967 -2010 0
-1967 -2011 0
-1967 -2012 0
-1967 -2013 0
-1967 -2014 0
-1967 -2015 0
-1967 -2016 0
-1967 -2017 0
-1967 -2018 0
-1967 -2019 0
-1967 -2020 0
-1967 -2021 0
-1968 -1969 0
-1968 -1970 0
-1968 -1971 0
-1968 -1972 0
-1968 -1973 0
-1968 -1974 0
-1968 -1975 0
-1968 -1976 0
-1968 -1977 0
-1968 -1978 0
-1968 -1979 0
-1968 -1980 0
-1968 -1981 0
-1968 -1982 0
-1968 -1983 0
-1968 -1984 0
-1968 -1985 0
-1968 -1986 0
-1968 -1987 0
-1968 -1988 0
-1968 -1989 0
-1968 -1990 0
-1968 -1991 0
-1968 -1992 0
-1968 -1993 0
-1968 -1994 0
-1968 -1995 0
-1968 -1996 0
-1968 -1997 0
-1968 -1998 0
-1968 -1999 0
-1968 -2000 0
-1968 -2001 0
-1968 -2002 0
-1968 -2003 0
-1968 -2004 0
-1968 -2005 0
-1968 -2006 0
-1968 -2007 0
-1968 -2008 0
-1968 -2009 0
-1968 -2010 0
-1968 -2011 0
-1968 -2012 0
-1968 -2013 0
-1968 -2014 0
-1968 -2015 0
-1968 -2016 0
-1968 -2017 0
-1968 -2018 0
-1968 -2019 0
-1968 -2020 0
-1968 -2021 0
-1969 -1970 0
-1969 -1971 0
-1969 -1972 0
-1969 -1973 0
-1969 -1974 0
-1969 -1975 0
-1969 -1976 0
-1969 -1977 0
-1969 -1978 0
-1969 -1979 0
-1969 -1980 0
-1969 -1981 0
-1969 -1982 0
-1969 -1983 0
-1969 -1984 0
-1969 -1985 0
-1969 -1986 0
-1969 -1987 0
-1969 -1988 0
-1969 -1989 0
-1969 -1990 0
-1969 -1991 0
-1969 -1992 0
-1969 -1993 0
-1969 -1994 0
-1969 -1995 0
-1969 -1996 0
-1969 -1997 0
-1969 -1998 0
-1969 -1999 0
-1969 -2000 0
-1969 -2001 0
-1969 -2002 0
-1969 -2003 0
-1969 -2004 0
-1969 -2005 0
-1969 -2006 0
-1969 -2007 0
-1969 -2008 0
-1969 -2009 0
-1969 -2010 0
-1969 -2011 0
-1969 -2012 0
-1969 -2013 0
-1969 -2014 0
-1969 -2015 0
-1969 -2016 0
-1969 -2017 0
-1969 -2018 0
-1969 -2019 0
-1969 -2020 0
-1969 -2021 0
-1970 -1971 0
-1970 -1972 0
-1970 -1973 0
-1970 -1974 0
-1970 -1975 0
-1970 -1976 0
-1970 -1977 0
-1970 -1978 0
-1970 -1979 0
-1970 -1980 0
-1970 -1981 0
-1970 -1982 0
-1970 -1983 0
-1970 -1984 0
-1970 -1985 0
-1970 -1986 0
-1970 -1987 0
-1970 -1988 0
-1970 -1989 0
-1970 -1990 0
-1970 -1991 0
-1970 -1992 0
-1970 -1993 0
-1970 -1994 0
-1970 -1995 0
-1970 -1996 0
-1970 -1997 0
-1970 -1998 0
-1970 -1999 0
-1970 -2000 0
-1970 -2001 0
-1970 -2002 0
-1970 -2003 0
-1970 -2004 0
-1970 -2005 0
-1970 -2006 0
-1970 -2007 0
-1970 -2008 0
-1970 -2009 0
-1970 -2010 0
-1970 -2011 0
-1970 -2012 0
-1970 -2013 0
-1970 -2014 0
-1970 -2015 0
-1970 -2016 0
-1970 -2017 0
-1970 -2018 0
-1970 -2019 0
-1970 -2020 0
-1970 -2021 0
-1971 -1972 0
-1971 -1973 0
-1971 -1974 0
-1971 -1975 0
-1971 -1976 0
-1971 -1977 0
-1971 -1978 0
-1971 -1979 0
-1971 -1980 0
-1971 -1981 0
-1971 -1982 0
-1971 -1983 0
-1971 -1984 0
-1971 -1985 0
-1971 -1986 0
-1971 -1987 0
-1971 -1988 0
-1971 -1989 0
-1971 -1990 0
-1971 -1991 0
-1971 -1992 0
-1971 -1993 0
-1971 -1994 0
-1971 -1995 0
-1971 -1996 0
-1971 -1997 0
-1971 -1998 0
-1971 -1999 0
-1971 -2000 0
-1971 -2001 0
-1971 -2002 0
-1971 -2003 0
-1971 -2004 0
-1971 -2005 0
-1971 -2006 0
-1971 -2007 0
-1971 -2008 0
-1971 -2009 0
-1971 -2010 0
-1971 -2011 0
-1971 -2012 0
-1971 -2013 0
-1971 -2014 0
-1971 -2015 0
-1971 -2016 0
-1971 -2017 0
-1971 -2018 0
-1971 -2019 0
-1971 -2020 0
-1971 -2021 0
-1972 -1973 0
-1972 -1974 0
-1972 -1975 0
-1972 -1976 0
-1972 -1977 0
-1972 -1978 0
-1972 -1979 0
-1972 -1980 0
-1972 -1981 0
-1972 -1982 0
-1972 -1983 0
-1972 -1984 0
-1972 -1985 0
-1972 -1986 0
-1972 -1987 0
-1972 -1988 0
-1972 -1989 0
-1972 -1990 0
-1972 -1991 0
-1972 -1992 0
-1972 -1993 0
-1972 -1994 0
-1972 -1995 0
-1972 -1996 0
-1972 -1997 0
-1972 -1998 0
-1972 -1999 0
-1972 -2000 0
-1972 -2001 0
-1972 -2002 0
-1972 -2003 0
-1972 -2004 0
-1972 -2005 0
-1972 -2006 0
-1972 -2007 0
-1972 -2008 0
-1972 -2009 0
-1972 -2010 0
-1972 -2011 0
-1972 -2012 0
-1972 -2013 0
-1972 -2014 0
-1972 -2015 0
-1972 -2016 0
-1972 -2017 0
-1972 -2018 0
-1972 -2019 0
-1972 -2020 0
-1972 -2021 0
-1973 -1974 0
-1973 -1975 0
-1973 -1976 0
-1973 -1977 0
-1973 -1978 0
-1973 -1979 0
-1973 -1980 0
-1973 -1981 0
-1973 -1982 0
-1973 -1983 0
-1973 -1984 0
-1973 -1985 0
-1973 -1986 0
-1973 -1987 0
-1973 -1988 0
-1973 -1989 0
-1973 -1990 0
-1973 -1991 0
-1973 -1992 0
-1973 -1993 0
-1973 -1994 0
-1973 -1995 0
-1973 -1996 0
-1973 -1997 0
-1973 -1998 0
-1973 -1999 0
-1973 -2000 0
-1973 -2001 0
-1973 -2002 0
-1973 -2003 0
-1973 -2004 0
-1973 -2005 0
-1973 -2006 0
-1973 -2007 0
-1973 -2008 0
-1973 -2009 0
-1973 -2010 0
-1973 -2011 0
-1973 -2012 0
-1973 -2013 0
-1973 -2014 0
-1973 -2015 0
-1973 -2016 0
-1973 -2017 0
-1973 -2018 0
-1973 -2019 0
-1973 -2020 0
-1973 -2021 0
-1974 -1975 0
-1974 -1976 0
-1974 -1977 0
-1974 -1978 0
-1974 -1979 0
-1974 -1980 0
-1974 -1981 0
-1974 -1982 0
-1974 -1983 0
-1974 -1984 0
-1974 -1985 0
-1974 -1986 0
-1974 -1987 0
-1974 -1988 0
-1974 -1989 0
-1974 -1990 0
-1974 -1991 0
-1974 -1992 0
-1974 -1993 0
-1974 -1994 0
-1974 -1995 0
-1974 -1996 0
-1974 -1997 0
-1974 -1998 0
-1974 -1999 0
-1974 -2000 0
-1974 -2001 0
-1974 -2002 0
-1974 -2003 0
-1974 -2004 0
-1974 -2005 0
-1974 -2006 0
-1974 -2007 0
-1974 -2008 0
-1974 -2009 0
-1974 -2010 0
-1974 -2011 0
-1974 -2012 0
-1974 -2013 0
-1974 -2014 0
-1974 -2015 0
-1974 -2016 0
-1974 -2017 0
-1974 -2018 0
-1974 -2019 0
-1974 -2020 0
-1974 -2021 0
-1975 -1976 0
-1975 -1977 0
-1975 -1978 0
-1975 -1979 0
-1975 -1980 0
-1975 -1981 0
-1975 -1982 0
-1975 -1983 0
-1975 -1984 0
-1975 -1985 0
-1975 -1986 0
-1975 -1987 0
-1975 -1988 0
-1975 -1989 0
-1975 -1990 0
-1975 -1991 0
-1975 -1992 0
-1975 -1993 0
-1975 -1994 0
-1975 -1995 0
-1975 -1996 0
-1975 -1997 0
-1975 -1998 0
-1975 -1999 0
-1975 -2000 0
-1975 -2001 0
-1975 -2002 0
-1975 -2003 0
-1975 -2004 0
-1975 -2005 0
-1975 -2006 0
-1975 -2007 0
-1975 -2008 0
-1975 -2009 0
-1975 -2010 0
-1975 -2011 0
-1975 -2012 0
-1975 -2013 0
-1975 -2014 0
-1975 -2015 0
-1975 -2016 0
-1975 -2017 0
-1975 -2018 0
-1975 -2019 0
-1975 -2020 0
-1975 -2021 0
-1976 -1977 0
-1976 -1978 0
-1976 -1979 0
-1976 -1980 0
-1976 -1981 0
-1976 -1982 0
-1976 -1983 0
-1976 -1984 0
-1976 -1985 0
-1976 -1986 0
-1976 -1987 0
-1976 -1988 0
-1976 -1989 0
-1976 -1990 0
-1976 -1991 0
-1976 -1992 0
-1976 -1993 0
-1976 -1994 0
-1976 -1995 0
-1976 -1996 0
-1976 -1997 0
-1976 -1998 0
-1976 -1999 0
-1976 -2000 0
-1976 -2001 0
-1976 -2002 0
-1976 -2003 0
-1976 -2004 0
-1976 -2005 0
-1976 -2006 0
-1976 -2007 0
-1976 -2008 0
-1976 -2009 0
-1976 -2010 0
-1976 -2011 0
-1976 -2012 0
-1976 -2013 0
-1976 -2014 0
-1976 -2015 0
-1976 -2016 0
-1976 -2017 0
-1976 -2018 0
-1976 -2019 0
-1976 -2020 0
-1976 -2021 0
-1977 -1978 0
-1977 -1979 0
-1977 -1980 0
-1977 -1981 0
-1977 -1982 0
-1977 -1983 0
-1977 -1984 0
-1977 -1985 0
-1977 -1986 0
-1977 -1987 0
-1977 -1988 0
-1977 -1989 0
-1977 -1990 0
-1977 -1991 0
-1977 -1992 0
-1977 -1993 0
-1977 -1994 0
-1977 -1995 0
-1977 -1996 0
-1977 -1997 0
-1977 -1998 0
-1977 -1999 0
-1977 -2000 0
-1977 -2001 0
-1977 -2002 0
-1977 -2003 0
-1977 -2004 0
-1977 -2005 0
-1977 -2006 0
-1977 -2007 0
-1977 -2008 0
-1977 -2009 0
-1977 -2010 0
-1977 -2011 0
-1977 -2012 0
-1977 -2013 0
-1977 -2014 0
-1977 -2015 0
-1977 -2016 0
-1977 -2017 0
-1977 -2018 0
-1977 -2019 0
-1977 -2020 0
-1977 -2021 0
-1978 -1979 0
-1978 -1980 0
-1978 -1981 0
-1978 -1982 0
-1978 -1983 0
-1978 -1984 0
-1978 -1985 0
-1978 -1986 0
-1978 -1987 0
-1978 -1988 0
-1978 -1989 0
-1978 -1990 0
-1978 -1991 0
-1978 -1992 0
-1978 -1993 0
-1978 -1994 0
-1978 -1995 0
-1978 -1996 0
-1978 -1997 0
-1978 -1998 0
-1978 -1999 0
-1978 -2000 0
-1978 -2001 0
-1978 -2002 0
-1978 -2003 0
-1978 -2004 0
-1978 -2005 0
-1978 -2006 0
-1978 -2007 0
-1978 -2008 0
-1978 -2009 0
-1978 -2010 0
-1978 -2011 0
-1978 -2012 0
-1978 -2013 0
-1978 -2014 0
-1978 -2015 0
-1978 -2016 0
-1978 -2017 0
-1978 -2018 0
-1978 -2019 0
-1978 -2020 0
-1978 -2021 0
-1979 -1980 0
-1979 -1981 0
-1979 -1982 0
-1979 -1983 0
-1979 -1984 0
-1979 -1985 0
-1979 -1986 0
-1979 -1987 0
-1979 -1988 0
-1979 -1989 0
-1979 -1990 0
-1979 -1991 0
-1979 -1992 0
-1979 -1993 0
-1979 -1994 0
-1979 -1995 0
-1979 -1996 0
-1979 -1997 0
-1979 -1998 0
-1979 -1999 0
-1979 -2000 0
-1979 -2001 0
-1979 -2002 0
-1979 -2003 0
-1979 -2004 0
-1979 -2005 0
-1979 -2006 0
-1979 -2007 0
-1979 -2008 0
-1979 -2009 0
-1979 -2010 0
-1979 -2011 0
-1979 -2012 0
-1979 -2013 0
-1979 -2014 0
-1979 -2015 0
-1979 -2016 0
-1979 -2017 0
-1979 -2018 0
-1979 -2019 0
-1979 -2020 0
-1979 -2021 0
-1980 -1981 0
-1980 -1982 0
-1980 -1983 0
-1980 -1984 0
-1980 -1985 0
-1980 -1986 0
-1980 -1987 0
-1980 -1988 0
-1980 -1989 0
-1980 -1990 0
-1980 -1991 0
-1980 -1992 0
-1980 -1993 0
-1980 -1994 0
-1980 -1995 0
-1980 -1996 0
-1980 -1997 0
-1980 -1998 0
-1980 -1999 0
-1980 -2000 0
-1980 -2001 0
-1980 -2002 0
-1980 -2003 0
-1980 -2004 0
-1980 -2005 0
-1980 -2006 0
-1980 -2007 0
-1980 -2008 0
-1980 -2009 0
-1980 -2010 0
-1980 -2011 0
-1980 -2012 0
-1980 -2013 0
-1980 -2014 0
-1980 -2015 0
-1980 -2016 0
-1980 -2017 0
-1980 -2018 0
-1980 -2019 0
-1980 -2020 0
-1980 -2021 0
-1981 -1982 0
-1981 -1983 0
-1981 -1984 0
-1981 -1985 0
-1981 -1986 0
-1981 -1987 0
-1981 -1988 0
-1981 -1989 0
-1981 -1990 0
-1981 -1991 0
-1981 -1992 0
-1981 -1993 0
-1981 -1994 0
-1981 -1995 0
-1981 -1996 0
-1981 -1997 0
-1981 -1998 0
-1981 -1999 0
-1981 -2000 0
-1981 -2001 0
-1981 -2002 0
-1981 -2003 0
-1981 -2004 0
-1981 -2005 0
-1981 -2006 0
-1981 -2007 0
-1981 -2008 0
-1981 -2009 0
-1981 -2010 0
-1981 -2011 0
-1981 -2012 0
-1981 -2013 0
-1981 -2014 0
-1981 -2015 0
-1981 -2016 0
-1981 -2017 0
-1981 -2018 0
-1981 -2019 0
-1981 -2020 0
-1981 -2021 0
-1982 -1983 0
-1982 -1984 0
-1982 -1985 0
-1982 -1986 0
-1982 -1987 0
-1982 -1988 0
-1982 -1989 0
-1982 -1990 0
-1982 -1991 0
-1982 -1992 0
-1982 -1993 0
-1982 -1994 0
-1982 -1995 0
-1982 -1996 0
-1982 -1997 0
-1982 -1998 0
-1982 -1999 0
-1982 -2000 0
-1982 -2001 0
-1982 -2002 0
-1982 -2003 0
-1982 -2004 0
-1982 -2005 0
-1982 -2006 0
-1982 -2007 0
-1982 -2008 0
-1982 -2009 0
-1982 -2010 0
-1982 -2011 0
-1982 -2012 0
-1982 -2013 0
-1982 -2014 0
-1982 -2015 0
-1982 -2016 0
-1982 -2017 0
-1982 -2018 0
-1982 -2019 0
-1982 -2020 0
-1982 -2021 0
-1983 -1984 0
-1983 -1985 0
-1983 -1986 0
-1983 -1987 0
-1983 -1988 0
-1983 -1989 0
-1983 -1990 0
-1983 -1991 0
-1983 -1992 0
-1983 -1993 0
-1983 -1994 0
-1983 -1995 0
-1983 -1996 0
-1983 -1997 0
-1983 -1998 0
-1983 -1999 0
-1983 -2000 0
-1983 -2001 0
-1983 -2002 0
-1983 -2003 0
-1983 -2004 0
-1983 -2005 0
-1983 -2006 0
-1983 -2007 0
-1983 -2008 0
-1983 -2009 0
-1983 -2010 0
-1983 -2011 0
-1983 -2012 0
-1983 -2013 0
-1983 -2014 0
-1983 -2015 0
-1983 -2016 0
-1983 -2017 0
-1983 -2018 0
-1983 -2019 0
-1983 -2020 0
-1983 -2021 0
-1984 -1985 0
-1984 -1986 0
-1984 -1987 0
-1984 -1988 0
-1984 -1989 0
-1984 -1990 0
-1984 -1991 0
-1984 -1992 0
-1984 -1993 0
-1984 -1994 0
-1984 -1995 0
-1984 -1996 0
-1984 -1997 0
-1984 -1998 0
-1984 -1999 0
-1984 -2000 0
-1984 -2001 0
-1984 -2002 0
-1984 -2003 0
-1984 -2004 0
-1984 -2005 0
-1984 -2006 0
-1984 -2007 0
-1984 -2008 0
-1984 -2009 0
-1984 -2010 0
-1984 -2011 0
-1984 -2012 0
-1984 -2013 0
-1984 -2014 0
-1984 -2015 0
-1984 -2016 0
-1984 -2017 0
-1984 -2018 0
-1984 -2019 0
-1984 -2020 0
-1984 -2021 0
-1985 -1986 0
-1985 -1987 0
-1985 -1988 0
-1985 -1989 0
-1985 -1990 0
-1985 -1991 0
-1985 -1992 0
-1985 -1993 0
-1985 -1994 0
-1985 -1995 0
-1985 -1996 0
-1985 -1997 0
-1985 -1998 0
-1985 -1999 0
-1985 -2000 0
-1985 -2001 0
-1985 -2002 0
-1985 -2003 0
-1985 -2004 0
-1985 -2005 0
-1985 -2006 0
-1985 -2007 0
-1985 -2008 0
-1985 -2009 0
-1985 -2010 0
-1985 -2011 0
-1985 -2012 0
-1985 -2013 0
-1985 -2014 0
-1985 -2015 0
-1985 -2016 0
-1985 -2017 0
-1985 -2018 0
-1985 -2019 0
-1985 -2020 0
-1985 -2021 0
-1986 -1987 0
-1986 -1988 0
-1986 -1989 0
-1986 -1990 0
-1986 -1991 0
-1986 -1992 0
-1986 -1993 0
-1986 -1994 0
-1986 -1995 0
-1986 -1996 0
-1986 -1997 0
-1986 -1998 0
-1986 -1999 0
-1986 -2000 0
-1986 -2001 0
-1986 -2002 0
-1986 -2003 0
-1986 -2004 0
-1986 -2005 0
-1986 -2006 0
-1986 -2007 0
-1986 -2008 0
-1986 -2009 0
-1986 -2010 0
-1986 -2011 0
-1986 -2012 0
-1986 -2013 0
-1986 -2014 0
-1986 -2015 0
-1986 -2016 0
-1986 -2017 0
-1986 -2018 0
-1986 -2019 0
-1986 -2020 0
-1986 -2021 0
-1987 -1988 0
-1987 -1989 0
-1987 -1990 0
-1987 -1991 0
-1987 -1992 0
-1987 -1993 0
-1987 -1994 0
-1987 -1995 0
-1987 -1996 0
-1987 -1997 0
-1987 -1998 0
-1987 -1999 0
-1987 -2000 0
-1987 -2001 0
-1987 -2002 0
-1987 -2003 0
-1987 -2004 0
-1987 -2005 0
-1987 -2006 0
-1987 -2007 0
-1987 -2008 0
-1987 -2009 0
-1987 -2010 0
-1987 -2011 0
-1987 -2012 0
-1987 -2013 0
-1987 -2014 0
-1987 -2015 0
-1987 -2016 0
-1987 -2017 0
-1987 -2018 0
-1987 -2019 0
-1987 -2020 0
-1987 -2021 0
-1988 -1989 0
-1988 -1990 0
-1988 -1991 0
-1988 -1992 0
-1988 -1993 0
-1988 -1994 0
-1988 -1995 0
-1988 -1996 0
-1988 -1997 0
-1988 -1998 0
-1988 -1999 0
-1988 -2000 0
-1988 -2001 0
-1988 -2002 0
-1988 -2003 0
-1988 -2004 0
-1988 -2005 0
-1988 -2006 0
-1988 -2007 0
-1988 -2008 0
-1988 -2009 0
-1988 -2010 0
-1988 -2011 0
-1988 -2012 0
-1988 -2013 0
-1988 -2014 0
-1988 -2015 0
-1988 -2016 0
-1988 -2017 0
-1988 -2018 0
-1988 -2019 0
-1988 -2020 0
-1988 -2021 0
-1989 -1990 0
-1989 -1991 0
-1989 -1992 0
-1989 -1993 0
-1989 -1994 0
-1989 -1995 0
-1989 -1996 0
-1989 -1997 0
-1989 -1998 0
-1989 -1999 0
-1989 -2000 0
-1989 -2001 0
-1989 -2002 0
-1989 -2003 0
-1989 -2004 0
-1989 -2005 0
-1989 -2006 0
-1989 -2007 0
-1989 -2008 0
-1989 -2009 0
-1989 -2010 0
-1989 -2011 0
-1989 -2012 0
-1989 -2013 0
-1989 -2014 0
-1989 -2015 0
-1989 -2016 0
-1989 -2017 0
-1989 -2018 0
-1989 -2019 0
-1989 -2020 0
-1989 -2021 0
-1990 -1991 0
-1990 -1992 0
-1990 -1993 0
-1990 -1994 0
-1990 -1995 0
-1990 -1996 0
-1990 -1997 0
-1990 -1998 0
-1990 -1999 0
-1990 -2000 0
-1990 -2001 0
-1990 -2002 0
-1990 -2003 0
-1990 -2004 0
-1990 -2005 0
-1990 -2006 0
-1990 -2007 0
-1990 -2008 0
-1990 -2009 0
-1990 -2010 0
-1990 -2011 0
-1990 -2012 0
-1990 -2013 0
-1990 -2014 0
-1990 -2015 0
-1990 -2016 0
-1990 -2017 0
-1990 -2018 0
-1990 -2019 0
-1990 -2020 0
-1990 -2021 0
-1991 -1992 0
-1991 -1993 0
-1991 -1994 0
-1991 -1995 0
-1991 -1996 0
-1991 -1997 0
-1991 -1998 0
-1991 -1999 0
-1991 -2000 0
-1991 -2001 0
-1991 -2002 0
-1991 -2003 0
-1991 -2004 0
-1991 -2005 0
-1991 -2006 0
-1991 -2007 0
-1991 -2008 0
-1991 -2009 0
-1991 -2010 0
-1991 -2011 0
-1991 -2012 0
-1991 -2013 0
-1991 -2014 0
-1991 -2015 0
-1991 -2016 0
-1991 -2017 0
-1991 -2018 0
-1991 -2019 0
-1991 -2020 0
-1991 -2021 0
-1992 -1993 0
-1992 -1994 0
-1992 -1995 0
-1992 -1996 0
-1992 -1997 0
-1992 -1998 0
-1992 -1999 0
-1992 -2000 0
-1992 -2001 0
-1992 -2002 0
-1992 -2003 0
-1992 -2004 0
-1992 -2005 0
-1992 -2006 0
-1992 -2007 0
-1992 -2008 0
-1992 -2009 0
-1992 -2010 0
-1992 -2011 0
-1992 -2012 0
-1992 -2013 0
-1992 -2014 0
-1992 -2015 0
-1992 -2016 0
-1992 -2017 0
-1992 -2018 0
-1992 -2019 0
-1992 -2020 0
-1992 -2021 0
-1993 -1994 0
-1993 -1995 0
-1993 -1996 0
-1993 -1997 0
-1993 -1998 0
-1993 -1999 0
-1993 -2000 0
-1993 -2001 0
-1993 -2002 0
-1993 -2003 0
-1993 -2004 0
-1993 -2005 0
-1993 -2006 0
-1993 -2007 0
-1993 -2008 0
-1993 -2009 0
-1993 -2010 0
-1993 -2011 0
-1993 -2012 0
-1993 -2013 0
-1993 -2014 0
-1993 -2015 0
-1993 -2016 0
-1993 -2017 0
-1993 -2018 0
-1993 -2019 0
-1993 -2020 0
-1993 -2021 0
-1994 -1995 0
-1994 -1996 0
-1994 -1997 0
-1994 -1998 0
-1994 -1999 0
-1994 -2000 0
-1994 -2001 0
-1994 -2002 0
-1994 -2003 0
-1994 -2004 0
-1994 -2005 0
-1994 -2006 0
-1994 -2007 0
-1994 -2008 0
-1994 -2009 0
-1994 -2010 0
-1994 -2011 0
-1994 -2012 0
-1994 -2013 0
-1994 -2014 0
-1994 -2015 0
-1994 -2016 0
-1994 -2017 0
-1994 -2018 0
-1994 -2019 0
-1994 -2020 0
-1994 -2021 0
-1995 -1996 0
-1995 -1997 0
-1995 -1998 0
-1995 -1999 0
-1995 -2000 0
-1995 -2001 0
-1995 -2002 0
-1995 -2003 0
-1995 -2004 0
-1995 -2005 0
-1995 -2006 0
-1995 -2007 0
-1995 -2008 0
-1995 -2009 0
-1995 -2010 0
-1995 -2011 0
-1995 -2012 0
-1995 -2013 0
-1995 -2014 0
-1995 -2015 0
-1995 -2016 0
-1995 -2017 0
-1995 -2018 0
-1995 -2019 0
-1995 -2020 0
-1995 -2021 0
-1996 -1997 0
-1996 -1998 0
-1996 -1999 0
-1996 -2000 0
-1996 -2001 0
-1996 -2002 0
-1996 -2003 0
-1996 -2004 0
-1996 -2005 0
-1996 -2006 0
-1996 -2007 0
-1996 -2008 0
-1996 -2009 0
-1996 -2010 0
-1996 -2011 0
-1996 -2012 0
-1996 -2013 0
-1996 -2014 0
-1996 -2015 0
-1996 -2016 0
-1996 -2017 0
-1996 -2018 0
-1996 -2019 0
-1996 -2020 0
-1996 -2021 0
-1997 -1998 0
-1997 -1999 0
-1997 -2000 0
-1997 -2001 0
-1997 -2002 0
-1997 -2003 0
-1997 -2004 0
-1997 -2005 0
-1997 -2006 0
-1997 -2007 0
-1997 -2008 0
-1997 -2009 0
-1997 -2010 0
-1997 -2011 0
-1997 -2012 0
-1997 -2013 0
-1997 -2014 0
-1997 -2015 0
-1997 -2016 0
-1997 -2017 0
-1997 -2018 0
-1997 -2019 0
-1997 -2020 0
-1997 -2021 0
-1998 -1999 0
-1998 -2000 0
-1998 -2001 0
-1998 -2002 0
-1998 -2003 0
-1998 -2004 0
-1998 -2005 0
-1998 -2006 0
-1998 -2007 0
-1998 -2008 0
-1998 -2009 0
-1998 -2010 0
-1998 -2011 0
-1998 -2012 0
-1998 -2013 0
-1998 -2014 0
-1998 -2015 0
-1998 -2016 0
-1998 -2017 0
-1998 -2018 0
-1998 -2019 0
-1998 -2020 0
-1998 -2021 0
-1999 -2000 0
-1999 -2001 0
-1999 -2002 0
-1999 -2003 0
-1999 -2004 0
-1999 -2005 0
-1999 -2006 0
-1999 -2007 0
-1999 -2008 0
-1999 -2009 0
-1999 -2010 0
-1999 -2011 0
-1999 -2012 0
-1999 -2013 0
-1999 -2014 0
-1999 -2015 0
-1999 -2016 0
-1999 -2017 0
-1999 -2018 0
-1999 -2019 0
-1999 -2020 0
-1999 -2021 0
-2000 -2001 0
-2000 -2002 0
-2000 -2003 0
-2000 -2004 0
-2000 -2005 0
-2000 -2006 0
-2000 -2007 0
-2000 -2008 0
-2000 -2009 0
-2000 -2010 0
-2000 -2011 0
-2000 -2012 0
-2000 -2013 0
-2000 -2014 0
-2000 -2015 0
-2000 -2016 0
-2000 -2017 0
-2000 -2018 0
-2000 -2019 0
-2000 -2020 0
-2000 -2021 0
-2001 -2002 0
-2001 -2003 0
-2001 -2004 0
-2001 -2005 0
-2001 -2006 0
-2001 -2007 0
-2001 -2008 0
-2001 -2009 0
-2001 -2010 0
-2001 -2011 0
-2001 -2012 0
-2001 -2013 0
-2001 -2014 0
-2001 -2015 0
-2001 -2016 0
-2001 -2017 0
-2001 -2018 0
-2001 -2019 0
-2001 -2020 0
-2001 -2021 0
-2002 -2003 0
-2002 -2004 0
-2002 -2005 0
-2002 -2006 0
-2002 -2007 0
-2002 -2008 0
-2002 -2009 0
-2002 -2010 0
-2002 -2011 0
-2002 -2012 0
-2002 -2013 0
-2002 -2014 0
-2002 -2015 0
-2002 -2016 0
-2002 -2017 0
-2002 -2018 0
-2002 -2019 0
-2002 -2020 0
-2002 -2021 0
-2003 -2004 0
-2003 -2005 0
-2003 -2006 0
-2003 -2007 0
-2003 -2008 0
-2003 -2009 0
-2003 -2010 0
-2003 -2011 0
-2003 -2012 0
-2003 -2013 0
-2003 -2014 0
-2003 -2015 0
-2003 -2016 0
-2003 -2017 0
-2003 -2018 0
-2003 -2019 0
-2003 -2020 0
-2003 -2021 0
-2004 -2005 0
-2004 -2006 0
-2004 -2007 0
-2004 -2008 0
-2004 -2009 0
-2004 -2010 0
-2004 -2011 0
-2004 -2012 0
-2004 -2013 0
-2004 -2014 0
-2004 -2015 0
-2004 -2016 0
-2004 -2017 0
-2004 -2018 0
-2004 -2019 0
-2004 -2020 0
-2004 -2021 0
-2005 -2006 0
-2005 -2007 0
-2005 -2008 0
-2005 -2009 0
-2005 -2010 0
-2005 -2011 0
-2005 -2012 0
-2005 -2013 0
-2005 -2014 0
-2005 -2015 0
-2005 -2016 0
-2005 -2017 0
-2005 -2018 0
-2005 -2019 0
-2005 -2020 0
-2005 -2021 0
-2006 -2007 0
-2006 -2008 0
-2006 -2009 0
-2006 -2010 0
-2006 -2011 0
-2006 -2012 0
-2006 -2013 0
-2006 -2014 0
-2006 -2015 0
-2006 -2016 0
-2006 -2017 0
-2006 -2018 0
-2006 -2019 0
-2006 -2020 0
-2006 -2021 0
-2007 -2008 0
-2007 -2009 0
-2007 -2010 0
-2007 -2011 0
-2007 -2012 0
-2007 -2013 0
-2007 -2014 0
-2007 -2015 0
-2007 -2016 0
-2007 -2017 0
-2007 -2018 0
-2007 -2019 0
-2007 -2020 0
-2007 -2021 0
-2008 -2009 0
-2008 -2010 0
-2008 -2011 0
-2008 -2012 0
-2008 -2013 0
-2008 -2014 0
-2008 -2015 0
-2008 -2016 0
-2008 -2017 0
-2008 -2018 0
-2008 -2019 0
-2008 -2020 0
-2008 -2021 0
-2009 -2010 0
-2009 -2011 0
-2009 -2012 0
-2009 -2013 0
-2009 -2014 0
-2009 -2015 0
-2009 -2016 0
-2009 -2017 0
-2009 -2018 0
-2009 -2019 0
-2009 -2020 0
-2009 -2021 0
-2010 -2011 0
-2010 -2012 0
-2010 -2013 0
-2010 -2014 0
-2010 -2015 0
-2010 -2016 0
-2010 -2017 0
-2010 -2018 0
-2010 -2019 0
-2010 -2020 0
-2010 -2021 0
-2011 -2012 0
-2011 -2013 0
-2011 -2014 0
-2011 -2015 0
-2011 -2016 0
-2011 -2017 0
-2011 -2018 0
-2011 -2019 0
-2011 -2020 0
-2011 -2021 0
-2012 -2013 0
-2012 -2014 0
-2012 -2015 0
-2012 -2016 0
-2012 -2017 0
-2012 -2018 0
-2012 -2019 0
-2012 -2020 0
-2012 -2021 0
-2013 -2014 0
-2013 -2015 0
-2013 -2016 0
-2013 -2017 0
-2013 -2018 0
-2013 -2019 0
-2013 -2020 0
-2013 -2021 0
-2014 -2015 0
-2014 -2016 0
-2014 -2017 0
-2014 -2018 0
-2014 -2019 0
-2014 -2020 0
-2014 -2021 0
-2015 -2016 0
-2015 -2017 0
-2015 -2018 0
-2015 -2019 0
-2015 -2020 0
-2015 -2021 0
-2016 -2017 0
-2016 -2018 0
-2016 -2019 0
-2016 -2020 0
-2016 -2021 0
-2017 -2018 0
-2017 -2019 0
-2017 -2020 0
-2017 -2021 0
-2018 -2019 0
-2018 -2020 0
-2018 -2021 0
-2019 -2020 0
-2019 -2021 0
-2020 -2021 0
-1901 60 1962 0
-1901 -60 1961 0
-1902 60 1963 0
-1902 -60 1962 0
-1903 60 1964 0
-1903 -60 1963 0
-1904 60 1965 0
-1904 -60 1964 0
-1905 60 1966 0
-1905 -60 1965 0
-1906 60 1967 0
-1906 -60 1966 0
-1907 60 1968 0
-1907 -60 1967 0
-1908 60 1969 0
-1908 -60 1968 0
-1909 60 1970 0
-1909 -60 1969 0
-1910 60 1971 0
-1910 -60 1970 0
-1911 60 1972 0
-1911 -60 1971 0
-1912 60 1973 0
-1912 -60 1972 0
-1913 60 1974 0
-1913 -60 1973 0
-1914 60 1975 0
-1914 -60 1974 0
-1915 60 1976 0
-1915 -60 1975 0
-1916 60 1977 0
-1916 -60 1976 0
-1917 60 1978 0
-1917 -60 1977 0
-1918 60 1979 0
-1918 -60 1978 0
-1919 60 1980 0
-1919 -60 1979 0
-1920 60 1981 0
-1920 -60 1980 0
-1921 60 1982 0
-1921 -60 1981 0
-1922 60 1983 0
-1922 -60 1982 0
-1923 60 1984 0
-1923 -60 1983 0
-1924 60 1985 0
-1924 -60 1984 0
-1925 60 1986 0
-1925 -60 1985 0
-1926 60 1987 0
-1926 -60 1986 0
-1927 60 1988 0
-1927 -60 1987 0
-1928 60 1989 0
-1928 -60 1988 0
-1929 60 1990 0
-1929 -60 1989 0
-1930 60 1991 0
-1930 -60 1990 0
-1931 60 1992 0
-1931 -60 1991 0
-1932 60 1993 0
-1932 -60 1992 0
-1933 60 1994 0
-1933 -60 1993 0
-1934 60 1995 0
-1934 -60 1994 0
-1935 60 1996 0
-1935 -60 1995 0
-1936 60 1997 0
-1936 -60 1996 0
-1937 60 1998 0
-1937 -60 1997 0
-1938 60 1999 0
-1938 -60 1998 0
-1939 60 2000 0
-1939 -60 1999 0
-1940 60 2001 0
-1940 -60 2000 0
-1941 60 2002 0
-1941 -60 2001 0
-1942 60 2003 0
-1942 -60 2002 0
-1943 60 2004 0
-1943 -60 2003 0
-1944 60 2005 0
-1944 -60 2004 0
-1945 60 2006 0
-1945 -60 2005 0
-1946 60 2007 0
-1946 -60 2006 0
-1947 60 2008 0
-1947 -60 2007 0
-1948 60 2009 0
-1948 -60 2008 0
-1949 60 2010 0
-1949 -60 2009 0
-1950 60 2011 0
-1950 -60 2010 0
-1951 60 2012 0
-1951 -60 2011 0
-1952 60 2013 0
-1952 -60 2012 0
-1953 60 2014 0
-1953 -60 2013 0
-1954 60 2015 0
-1954 -60 2014 0
-1955 60 2016 0
-1955 -60 2015 0
-1956 60 2017 0
-1956 -60 2016 0
-1957 60 2018 0
-1957 -60 2017 0
-1958 60 2019 0
-1958 -60 2018 0
-1959 60 2020 0
-1959 -60 2019 0
-1960 60 2021 0
-1960 -60 2020 0
2022 2023 2024 2025 2026 2027 2028 2029 2030 2031 2032 2033 2034 2035 2036 2037 2038 2039 2040 2041 2042 2043 2044 2045 2046 2047 2048 2049 2050 2051 2052 2053 2054 2055 2056 2057 2058 2059 2060 2061 2062 2063 2064 2065 2066 2067 2068 2069 2070 2071 2072 2073 2074 2075 2076 2077 2078 2079 2080 2081 2082 2083 0
-2022 -2023 0
-2022 -2024 0
-2022 -2025 0
-2022 -2026 0
-2022 -2027 0
-2022 -2028 0
-2022 -2029 0
-2022 -2030 0
-2022 -2031 0
-2022 -2032 0
-2022 -2033 0
-2022 -2034 0
-2022 -2035 0
-2022 -2036 0
-2022 -2037 0
-2022 -2038 0
-2022 -2039 0
-2022 -2040 0
-2022 -2041 0
-2022 -2042 0
-2022 -2043 0
-2022 -2044 0
-2022 -2045 0
-2022 -2046 0
-2022 -2047 0
-2022 -2048 0
-2022 -2049 0
-2022 -2050 0
-2022 -2051 0
-2022 -2052 0
-2022 -2053 0
-2022 -2054 0
-2022 -2055 0
-2022 -2056 0
-2022 -2057 0
-2022 -2058 0
-2022 -2059 0
-2022 -2060 0
-2022 -2061 0
-2022 -2062 0
-2022 -2063 0
-2022 -2064 0
-2022 -2065 0
-2022 -2066 0
-2022 -2067 0
-2022 -2068 0
-2022 -2069 0
-2022 -2070 0
-2022 -2071 0
-2022 -2072 0
-2022 -2073 0
-2022 -2074 0
-2022 -2075 0
-2022 -2076 0
-2022 -2077 0
-2022 -2078 0
-2022 -2079 0
-2022 -2080 0
-2022 -2081 0
-2022 -2082 0
-2022 -2083 0
-2023 -2024 0
-2023 -2025 0
-2023 -2026 0
-2023 -2027 0
-2023 -2028 0
-2023 -2029 0
-2023 -2030 0
-2023 -2031 0
-2023 -2032 0
-2023 -2033 0
-2023 -2034 0
-2023 -2035 0
-2023 -2036 0
-2023 -2037 0
-2023 -2038 0
-2023 -2039 0
-2023 -2040 0
-2023 -2041 0
-2023 -2042 0
-2023 -2043 0
-2023 -2044 0
-2023 -2045 0
-2023 -2046 0
-2023 -2047 0
-2023 -2048 0
-2023 -2049 0
-2023 -2050 0
-2023 -2051 0
-2023 -2052 0
-2023 -2053 0
-2023 -2054 0
-2023 -2055 0
-2023 -2056 0
-2023 -2057 0
-2023 -2058 0
-2023 -2059 0
-2023 -2060 0
-2023 -2061 0
-2023 -2062 0
-2023 -2063 0
-2023 -2064 0
-2023 -2065 0
-2023 -2066 0
-2023 -2067 0
-2023 -2068 0
-2023 -2069 0
-2023 -2070 0
-2023 -2071 0
-2023 -2072 0
-2023 -2073 0
-2023 -2074 0
-2023 -2075 0
-2023 -2076 0
-2023 -2077 0
-2023 -2078 0
-2023 -2079 0
-2023 -2080 0
-2023 -2081 0
-2023 -2082 0
-2023 -2083 0
-2024 -2025 0
-2024 -2026 0
-2024 -2027 0
-2024 -2028 0
-2024 -2029 0
-2024 -2030 0
-2024 -2031 0
-2024 -2032 0
-2024 -2033 0
-2024 -2034 0
-2024 -2035 0
-2024 -2036 0
-2024 -2037 0
-2024 -2038 0
-2024 -2039 0
-2024 -2040 0
-2024 -2041 0
-2024 -2042 0
-2024 -2043 0
-2024 -2044 0
-2024 -2045 0
-2024 -2046 0
-2024 -2047 0
-2024 -2048 0
-2024 -2049 0
-2024 -2050 0
-2024 -2051 0
-2024 -2052 0
-2024 -2053 0
-2024 -2054 0
-2024 -2055 0
-2024 -2056 0
-2024 -2057 0
-2024 -2058 0
-2024 -2059 0
-2024 -2060 0
-2024 -2061 0
-2024 -2062 0
-2024 -2063 0
-2024 -2064 0
-2024 -2065 0
-2024 -2066 0
-2024 -2067 0
-2024 -2068 0
-2024 -2069 0
-2024 -2070 0
-2024 -2071 0
-2024 -2072 0
-2024 -2073 0
-2024 -2074 0
-2024 -2075 0
-2024 -2076 0
-2024 -2077 0
-2024 -2078 0
-2024 -2079 0
-2024 -2080 0
-2024 -2081 0
-2024 -2082 0
-2024 -2083 0
-2025 -2026 0
-2025 -2027 0
-2025 -2028 0
-2025 -2029 0
-2025 -2030 0
-2025 -2031 0
-2025 -2032 0
-2025 -2033 0
-2025 -2034 0
-2025 -2035 0
-2025 -2036 0
-2025 -2037 0
-2025 -2038 0
-2025 -2039 0
-2025 -2040 0
-2025 -2041 0
-2025 -2042 0
-2025 -2043 0
-2025 -2044 0
-2025 -2045 0
-2025 -2046 0
-2025 -2047 0
-2025 -2048 0
-2025 -2049 0
-2025 -2050 0
-2025 -2051 0
-2025 -2052 0
-2025 -2053 0
-2025 -2054 0
-2025 -2055 0
-2025 -2056 0
-2025 -2057 0
-2025 -2058 0
-2025 -2059 0
-2025 -2060 0
-2025 -2061 0
-2025 -2062 0
-2025 -2063 0
-2025 -2064 0
-2025 -2065 0
-2025 -2066 0
-2025 -2067 0
-2025 -2068 0
-2025 -2069 0
-2025 -2070 0
-2025 -2071 0
-2025 -2072 0
-2025 -2073 0
-2025 -2074 0
-2025 -2075 0
-2025 -2076 0
-2025 -2077 0
-2025 -2078 0
-2025 -2079 0
-2025 -2080 0
-2025 -2081 0
-2025 -2082 0
-2025 -2083 0
-2026 -2027 0
-2026 -2028 0
-2026 -2029 0
-2026 -2030 0
-2026 -2031 0
-2026 -2032 0
-2026 -2033 0
-2026 -2034 0
-2026 -2035 0
-2026 -2036 0
-2026 -2037 0
-2026 -2038 0
-2026 -2039 0
-2026 -2040 0
-2026 -2041 0
-2026 -2042 0
-2026 -2043 0
-2026 -2044 0
-2026 -2045 0
-2026 -2046 0
-2026 -2047 0
-2026 -2048 0
-2026 -2049 0
-2026 -2050 0
-2026 -2051 0
-2026 -2052 0
-2026 -2053 0
-2026 -2054 0
-2026 -2055 0
-2026 -2056 0
-2026 -2057 0
-2026 -2058 0
-2026 -2059 0
-2026 -2060 0
-2026 -2061 0
-2026 -2062 0
-2026 -2063 0
-2026 -2064 0
-2026 -2065 0
-2026 -2066 0
-2026 -2067 0
-2026 -2068 0
-2026 -2069 0
-2026 -2070 0
-2026 -2071 0
-2026 -2072 0
-2026 -2073 0
-2026 -2074 0
-2026 -2075 0
-2026 -2076 0
-2026 -2077 0
-2026 -2078 0
-2026 -2079 0
-2026 -2080 0
-2026 -2081 0
-2026 -2082 0
-2026 -2083 0
-2027 -2028 0
-2027 -2029 0
-2027 -2030 0
-2027 -2031 0
-2027 -2032 0
-2027 -2033 0
-2027 -2034 0
-2027 -2035 0
-2027 -2036 0
-2027 -2037 0
-2027 -2038 0
-2027 -2039 0
-2027 -2040 0
-2027 -2041 0
-2027 -2042 0
-2027 -2043 0
-2027 -2044 0
-2027 -2045 0
-2027 -2046 0
-2027 -2047 0
-2027 -2048 0
-2027 -2049 0
-2027 -2050 0
-2027 -2051 0
-2027 -2052 0
-2027 -2053 0
-2027 -2054 0
-2027 -2055 0
-2027 -2056 0
-2027 -2057 0
-2027 -2058 0
-2027 -2059 0
-2027 -2060 0
-2027 -2061 0
-2027 -2062 0
-2027 -2063 0
-2027 -2064 0
-2027 -2065 0
-2027 -2066 0
-2027 -2067 0
-2027 -2068 0
-2027 -2069 0
-2027 -2070 0
-2027 -2071 0
-2027 -2072 0
-2027 -2073 0
-2027 -2074 0
-2027 -2075 0
-2027 -2076 0
-2027 -2077 0
-2027 -2078 0
-2027 -2079 0
-2027 -2080 0
-2027 -2081 0
-2027 -2082 0
-2027 -2083 0
-2028 -2029 0
-2028 -2030 0
-2028 -2031 0
-2028 -2032 0
-2028 -2033 0
-2028 -2034 0
-2028 -2035 0
-2028 -2036 0
-2028 -2037 0
-2028 -2038 0
-2028 -2039 0
-2028 -2040 0
-2028 -2041 0
-2028 -2042 0
-2028 -2043 0
-2028 -2044 0
-2028 -2045 0
-2028 -2046 0
-2028 -2047 0
-2028 -2048 0
-2028 -2049 0
-2028 -2050 0
-2028 -2051 0
-2028 -2052 0
-2028 -2053 0
-2028 -2054 0
-2028 -2055 0
-2028 -2056 0
-2028 -2057 0
-2028 -2058 0
-2028 -2059 0
-2028 -2060 0
-2028 -2061 0
-2028 -2062 0
-2028 -2063 0
-2028 -2064 0
-2028 -2065 0
-2028 -2066 0
-2028 -2067 0
-2028 -2068 0
-2028 -2069 0
-2028 -2070 0
-2028 -2071 0
-2028 -2072 0
-2028 -2073 0
-2028 -2074 0
-2028 -2075 0
-2028 -2076 0
-2028 -2077 0
-2028 -2078 0
-2028 -2079 0
-2028 -2080 0
-2028 -2081 0
-2028 -2082 0
-2028 -2083 0
-2029 -2030 0
-2029 -2031 0
-2029 -2032 0
-2029 -2033 0
-2029 -2034 0
-2029 -2035 0
-2029 -2036 0
-2029 -2037 0
-2029 -2038 0
-2029 -2039 0
-2029 -2040 0
-2029 -2041 0
-2029 -2042 0
-2029 -2043 0
-2029 -2044 0
-2029 -2045 0
-2029 -2046 0
-2029 -2047 0
-2029 -2048 0
-2029 -2049 0
-2029 -2050 0
-2029 -2051 0
-2029 -2052 0
-2029 -2053 0
-2029 -2054 0
-2029 -2055 0
-2029 -2056 0
-2029 -2057 0
-2029 -2058 0
-2029 -2059 0
-2029 -2060 0
-2029 -2061 0
-2029 -2062 0
-2029 -2063 0
-2029 -2064 0
-2029 -2065 0
-2029 -2066 0
-2029 -2067 0
-2029 -2068 0
-2029 -2069 0
-2029 -2070 0
-2029 -2071 0
-2029 -2072 0
-2029 -2073 0
-2029 -2074 0
-2029 -2075 0
-2029 -2076 0
-2029 -2077 0
-2029 -2078 0
-2029 -2079 0
-2029 -2080 0
-2029 -2081 0
-2029 -2082 0
-2029 -2083 0
-2030 -2031 0
-2030 -2032 0
-2030 -2033 0
-2030 -2034 0
-2030 -2035 0
-2030 -2036 0
-2030 -2037 0
-2030 -2038 0
-2030 -2039 0
-2030 -2040 0
-2030 -2041 0
-2030 -2042 0
-2030 -2043 0
-2030 -2044 0
-2030 -2045 0
-2030 -2046 0
-2030 -2047 0
-2030 -2048 0
-2030 -2049 0
-2030 -2050 0
-2030 -2051 0
-2030 -2052 0
-2030 -2053 0
-2030 -2054 0
-2030 -2055 0
-2030 -2056 0
-2030 -2057 0
-2030 -2058 0
-2030 -2059 0
-2030 -2060 0
-2030 -2061 0
-2030 -2062 0
-2030 -2063 0
-2030 -2064 0
-2030 -2065 0
-2030 -2066 0
-2030 -2067 0
-2030 -2068 0
-2030 -2069 0
-2030 -2070 0
-2030 -2071 0
-2030 -2072 0
-2030 -2073 0
-2030 -2074 0
-2030 -2075 0
-2030 -2076 0
-2030 -2077 0
-2030 -2078 0
-2030 -2079 0
-2030 -2080 0
-2030 -2081 0
-2030 -2082 0
-2030 -2083 0
-2031 -2032 0
-2031 -2033 0
-2031 -2034 0
-2031 -2035 0
-2031 -2036 0
-2031 -2037 0
-2031 -2038 0
-2031 -2039 0
-2031 -2040 0
-2031 -2041 0
-2031 -2042 0
-2031 -2043 0
-2031 -2044 0
-2031 -2045 0
-2031 -2046 0
-2031 -2047 0
-2031 -2048 0
-2031 -2049 0
-2031 -2050 0
-2031 -2051 0
-2031 -2052 0
-2031 -2053 0
-2031 -2054 0
-2031 -2055 0
-2031 -2056 0
-2031 -2057 0
-2031 -2058 0
-2031 -2059 0
-2031 -2060 0
-2031 -2061 0
-2031 -2062 0
-2031 -2063 0
-2031 -2064 0
-2031 -2065 0
-2031 -2066 0
-2031 -2067 0
-2031 -2068 0
-2031 -2069 0
-2031 -2070 0
-2031 -2071 0
-2031 -2072 0
-2031 -2073 0
-2031 -2074 0
-2031 -2075 0
-2031 -2076 0
-2031 -2077 0
-2031 -2078 0
-2031 -2079 0
-2031 -2080 0
-2031 -2081 0
-2031 -2082 0
-2031 -2083 0
-2032 -2033 0
-2032 -2034 0
-2032 -2035 0
-2032 -2036 0
-2032 -2037 0
-2032 -2038 0
-2032 -2039 0
-2032 -2040 0
-2032 -2041 0
-2032 -2042 0
-2032 -2043 0
-2032 -2044 0
-2032 -2045 0
-2032 -2046 0
-2032 -2047 0
-2032 -2048 0
-2032 -2049 0
-2032 -2050 0
-2032 -2051 0
-2032 -2052 0
-2032 -2053 0
-2032 -2054 0
-2032 -2055 0
-2032 -2056 0
-2032 -2057 0
-2032 -2058 0
-2032 -2059 0
-2032 -2060 0
-2032 -2061 0
-2032 -2062 0
-2032 -2063 0
-2032 -2064 0
-2032 -2065 0
-2032 -2066 0
-2032 -2067 0
-2032 -2068 0
-2032 -2069 0
-2032 -2070 0
-2032 -2071 0
-2032 -2072 0
-2032 -2073 0
-2032 -2074 0
-2032 -2075 0
-2032 -2076 0
-2032 -2077 0
-2032 -2078 0
-2032 -2079 0
-2032 -2080 0
-2032 -2081 0
-2032 -2082 0
-2032 -2083 0
-2033 -2034 0
-2033 -2035 0
-2033 -2036 0
-2033 -2037 0
-2033 -2038 0
-2033 -2039 0
-2033 -2040 0
-2033 -2041 0
-2033 -2042 0
-2033 -2043 0
-2033 -2044 0
-2033 -2045 0
-2033 -2046 0
-2033 -2047 0
-2033 -2048 0
-2033 -2049 0
-2033 -2050 0
-2033 -2051 0
-2033 -2052 0
-2033 -2053 0
-2033 -2054 0
-2033 -2055 0
-2033 -2056 0
-2033 -2057 0
-2033 -2058 0
-2033 -2059 0
-2033 -2060 0
-2033 -2061 0
-2033 -2062 0
-2033 -2063 0
-2033 -2064 0
-2033 -2065 0
-2033 -2066 0
-2033 -2067 0
-2033 -2068 0
-2033 -2069 0
-2033 -2070 0
-2033 -2071 0
-2033 -2072 0
-2033 -2073 0
-2033 -2074 0
-2033 -2075 0
-2033 -2076 0
-2033 -2077 0
-2033 -2078 0
-2033 -2079 0
-2033 -2080 0
-2033 -2081 0
-2033 -2082 0
-2033 -2083 0
-2034 -2035 0
-2034 -2036 0
-2034 -2037 0
-2034 -2038 0
-2034 -2039 0
-2034 -2040 0
-2034 -2041 0
-2034 -2042 0
-2034 -2043 0
-2034 -2044 0
-2034 -2045 0
-2034 -2046 0
-2034 -2047 0
-2034 -2048 0
-2034 -2049 0
-2034 -2050 0
-2034 -2051 0
-2034 -2052 0
-2034 -2053 0
-2034 -2054 0
-2034 -2055 0
-2034 -2056 0
-2034 -2057 0
-2034 -2058 0
-2034 -2059 0
-2034 -2060 0
-2034 -2061 0
-2034 -2062 0
-2034 -2063 0
-2034 -2064 0
-2034 -2065 0
-2034 -2066 0
-2034 -2067 0
-2034 -2068 0
-2034 -2069 0
-2034 -2070 0
-2034 -2071 0
-2034 -2072 0
-2034 -2073 0
-2034 -2074 0
-2034 -2075 0
-2034 -2076 0
-2034 -2077 0
-2034 -2078 0
-2034 -2079 0
-2034 -2080 0
-2034 -2081 0
-2034 -2082 0
-2034 -2083 0
-2035 -2036 0
-2035 -2037 0
-2035 -2038 0
-2035 -2039 0
-2035 -2040 0
-2035 -2041 0
-2035 -2042 0
-2035 -2043 0
-2035 -2044 0
-2035 -2045 0
-2035 -2046 0
-2035 -2047 0
-2035 -2048 0
-2035 -2049 0
-2035 -2050 0
-2035 -2051 0
-2035 -2052 0
-2035 -2053 0
-2035 -2054 0
-2035 -2055 0
-2035 -2056 0
-2035 -2057 0
-2035 -2058 0
-2035 -2059 0
-2035 -2060 0
-2035 -2061 0
-2035 -2062 0
-2035 -2063 0
-2035 -2064 0
-2035 -2065 0
-2035 -2066 0
-2035 -2067 0
-2035 -2068 0
-2035 -2069 0
-2035 -2070 0
-2035 -2071 0
-2035 -2072 0
-2035 -2073 0
-2035 -2074 0
-2035 -2075 0
-2035 -2076 0
-2035 -2077 0
-2035 -2078 0
-2035 -2079 0
-2035 -2080 0
-2035 -2081 0
-2035 -2082 0
-2035 -2083 0
-2036 -2037 0
-2036 -2038 0
-2036 -2039 0
-2036 -2040 0
-2036 -2041 0
-2036 -2042 0
-2036 -2043 0
-2036 -2044 0
-2036 -2045 0
-2036 -2046 0
-2036 -2047 0
-2036 -2048 0
-2036 -2049 0
-2036 -2050 0
-2036 -2051 0
-2036 -2052 0
-2036 -2053 0
-2036 -2054 0
-2036 -2055 0
-2036 -2056 0
-2036 -2057 0
-2036 -2058 0
-2036 -2059 0
-2036 -2060 0
-2036 -2061 0
-2036 -2062 0
-2036 -2063 0
-2036 -2064 0
-2036 -2065 0
-2036 -2066 0
-2036 -2067 0
-2036 -2068 0
-2036 -2069 0
-2036 -2070 0
-2036 -2071 0
-2036 -2072 0
-2036 -2073 0
-2036 -2074 0
-2036 -2075 0
-2036 -2076 0
-2036 -2077 0
-2036 -2078 0
-2036 -2079 0
-2036 -2080 0
-2036 -2081 0
-2036 -2082 0
-2036 -2083 0
-2037 -2038 0
-2037 -2039 0
-2037 -2040 0
-2037 -2041 0
-2037 -2042 0
-2037 -2043 0
-2037 -2044 0
-2037 -2045 0
-2037 -2046 0
-2037 -2047 0
-2037 -2048 0
-2037 -2049 0
-2037 -2050 0
-2037 -2051 0
-2037 -2052 0
-2037 -2053 0
-2037 -2054 0
-2037 -2055 0
-2037 -2056 0
-2037 -2057 0
-2037 -2058 0
-2037 -2059 0
-2037 -2060 0
-2037 -2061 0
-2037 -2062 0
-2037 -2063 0
-2037 -2064 0
-2037 -2065 0
-2037 -2066 0
-2037 -2067 0
-2037 -2068 0
-2037 -2069 0
-2037 -2070 0
-2037 -2071 0
-2037 -2072 0
-2037 -2073 0
-2037 -2074 0
-2037 -2075 0
-2037 -2076 0
-2037 -2077 0
-2037 -2078 0
-2037 -2079 0
-2037 -2080 0
-2037 -2081 0
-2037 -2082 0
-2037 -2083 0
-2038 -2039 0
-2038 -2040 0
-2038 -2041 0
-2038 -2042 0
-2038 -2043 0
-2038 -2044 0
-2038 -2045 0
-2038 -2046 0
-2038 -2047 0
-2038 -2048 0
-2038 -2049 0
-2038 -2050 0
-2038 -2051 0
-2038 -2052 0
-2038 -2053 0
-2038 -2054 0
-2038 -2055 0
-2038 -2056 0
-2038 -2057 0
-2038 -2058 0
-2038 -2059 0
-2038 -2060 0
-2038 -2061 0
-2038 -2062 0
-2038 -2063 0
-2038 -2064 0
-2038 -2065 0
-2038 -2066 0
-2038 -2067 0
-2038 -2068 0
-2038 -2069 0
-2038 -2070 0
-2038 -2071 0
-2038 -2072 0
-2038 -2073 0
-2038 -2074 0
-2038 -2075 0
-2038 -2076 0
-2038 -2077 0
-2038 -2078 0
-2038 -2079 0
-2038 -2080 0
-2038 -2081 0
-2038 -2082 0
-2038 -2083 0
-2039 -2040 0
-2039 -2041 0
-2039 -2042 0
-2039 -2043 0
-2039 -2044 0
-2039 -2045 0
-2039 -2046 0
-2039 -2047 0
-2039 -2048 0
-2039 -2049 0
-2039 -2050 0
-2039 -2051 0
-2039 -2052 0
-2039 -2053 0
-2039 -2054 0
-2039 -2055 0
-2039 -2056 0
-2039 -2057 0
-2039 -2058 0
-2039 -2059 0
-2039 -2060 0
-2039 -2061 0
-2039 -2062 0
-2039 -2063 0
-2039 -2064 0
-2039 -2065 0
-2039 -2066 0
-2039 -2067 0
-2039 -2068 0
-2039 -2069 0
-2039 -2070 0
-2039 -2071 0
-2039 -2072 0
-2039 -2073 0
-2039 -2074 0
-2039 -2075 0
-2039 -2076 0
-2039 -2077 0
-2039 -2078 0
-2039 -2079 0
-2039 -2080 0
-2039 -2081 0
-2039 -2082 0
-2039 -2083 0
-2040 -2041 0
-2040 -2042 0
-2040 -2043 0
-2040 -2044 0
-2040 -2045 0
-2040 -2046 0
-2040 -2047 0
-2040 -2048 0
-2040 -2049 0
-2040 -2050 0
-2040 -2051 0
-2040 -2052 0
-2040 -2053 0
-2040 -2054 0
-2040 -2055 0
-2040 -2056 0
-2040 -2057 0
-2040 -2058 0
-2040 -2059 0
-2040 -2060 0
-2040 -2061 0
-2040 -2062 0
-2040 -2063 0
-2040 -2064 0
-2040 -2065 0
-2040 -2066 0
-2040 -2067 0
-2040 -2068 0
-2040 -2069 0
-2040 -2070 0
-2040 -2071 0
-2040 -2072 0
-2040 -2073 0
-2040 -2074 0
-2040 -2075 0
-2040 -2076 0
-2040 -2077 0
-2040 -2078 0
-2040 -2079 0
-2040 -2080 0
-2040 -2081 0
-2040 -2082 0
-2040 -2083 0
-2041 -2042 0
-2041 -2043 0
-2041 -2044 0
-2041 -2045 0
-2041 -2046 0
-2041 -2047 0
-2041 -2048 0
-2041 -2049 0
-2041 -2050 0
-2041 -2051 0
-2041 -2052 0
-2041 -2053 0
-2041 -2054 0
-2041 -2055 0
-2041 -2056 0
-2041 -2057 0
-2041 -2058 0
-2041 -2059 0
-2041 -2060 0
-2041 -2061 0
-2041 -2062 0
-2041 -2063 0
-2041 -2064 0
-2041 -2065 0
-2041 -2066 0
-2041 -2067 0
-2041 -2068 0
-2041 -2069 0
-2041 -2070 0
-2041 -2071 0
-2041 -2072 0
-2041 -2073 0
-2041 -2074 0
-2041 -2075 0
-2041 -2076 0
-2041 -2077 0
-2041 -2078 0
-2041 -2079 0
-2041 -2080 0
-2041 -2081 0
-2041 -2082 0
-2041 -2083 0
-2042 -2043 0
-2042 -2044 0
-2042 -2045 0
-2042 -2046 0
-2042 -2047 0
-2042 -2048 0
-2042 -2049 0
-2042 -2050 0
-2042 -2051 0
-2042 -2052 0
-2042 -2053 0
-2042 -2054 0
-2042 -2055 0
-2042 -2056 0
-2042 -2057 0
-2042 -2058 0
-2042 -2059 0
-2042 -2060 0
-2042 -2061 0
-2042 -2062 0
-2042 -2063 0
-2042 -2064 0
-2042 -2065 0
-2042 -2066 0
-2042 -2067 0
-2042 -2068 0
-2042 -2069 0
-2042 -2070 0
-2042 -2071 0
-2042 -2072 0
-2042 -2073 0
-2042 -2074 0
-2042 -2075 0
-2042 -2076 0
-2042 -2077 0
-2042 -2078 0
-2042 -2079 0
-2042 -2080 0
-2042 -2081 0
-2042 -2082 0
-2042 -2083 0
-2043 -2044 0
-2043 -2045 0
-2043 -2046 0
-2043 -2047 0
-2043 -2048 0
-2043 -2049 0
-2043 -2050 0
-2043 -2051 0
-2043 -2052 0
-2043 -2053 0
-2043 -2054 0
-2043 -2055 0
-2043 -2056 0
-2043 -2057 0
-2043 -2058 0
-2043 -2059 0
-2043 -2060 0
-2043 -2061 0
-2043 -2062 0
-2043 -2063 0
-2043 -2064 0
-2043 -2065 0
-2043 -2066 0
-2043 -2067 0
-2043 -2068 0
-2043 -2069 0
-2043 -2070 0
-2043 -2071 0
-2043 -2072 0
-2043 -2073 0
-2043 -2074 0
-2043 -2075 0
-2043 -2076 0
-2043 -2077 0
-2043 -2078 0
-2043 -2079 0
-2043 -2080 0
-2043 -2081 0
-2043 -2082 0
-2043 -2083 0
-2044 -2045 0
-2044 -2046 0
-2044 -2047 0
-2044 -2048 0
-2044 -2049 0
-2044 -2050 0
-2044 -2051 0
-2044 -2052 0
-2044 -2053 0
-2044 -2054 0
-2044 -2055 0
-2044 -2056 0
-2044 -2057 0
-2044 -2058 0
-2044 -2059 0
-2044 -2060 0
-2044 -2061 0
-2044 -2062 0
-2044 -2063 0
-2044 -2064 0
-2044 -2065 0
-2044 -2066 0
-2044 -2067 0
-2044 -2068 0
-2044 -2069 0
-2044 -2070 0
-2044 -2071 0
-2044 -2072 0
-2044 -2073 0
-2044 -2074 0
-2044 -2075 0
-2044 -2076 0
-2044 -2077 0
-2044 -2078 0
-2044 -2079 0
-2044 -2080 0
-2044 -2081 0
-2044 -2082 0
-2044 -2083 0
-2045 -2046 0
-2045 -2047 0
-2045 -2048 0
-2045 -2049 0
-2045 -2050 0
-2045 -2051 0
-2045 -2052 0
-2045 -2053 0
-2045 -2054 0
-2045 -2055 0
-2045 -2056 0
-2045 -2057 0
-2045 -2058 0
-2045 -2059 0
-2045 -2060 0
-2045 -2061 0
-2045 -2062 0
-2045 -2063 0
-2045 -2064 0
-2045 -2065 0
-2045 -2066 0
-2045 -2067 0
-2045 -2068 0
-2045 -2069 0
-2045 -2070 0
-2045 -2071 0
-2045 -2072 0
-2045 -2073 0
-2045 -2074 0
-2045 -2075 0
-2045 -2076 0
-2045 -2077 0
-2045 -2078 0
-2045 -2079 0
-2045 -2080 0
-2045 -2081 0
-2045 -2082 0
-2045 -2083 0
-2046 -2047 0
-2046 -2048 0
-2046 -2049 0
-2046 -2050 0
-2046 -2051 0
-2046 -2052 0
-2046 -2053 0
-2046 -2054 0
-2046 -2055 0
-2046 -2056 0
-2046 -2057 0
-2046 -2058 0
-2046 -2059 0
-2046 -2060 0
-2046 -2061 0
-2046 -2062 0
-2046 -2063 0
-2046 -2064 0
-2046 -2065 0
-2046 -2066 0
-2046 -2067 0
-2046 -2068 0
-2046 -2069 0
-2046 -2070 0
-2046 -2071 0
-2046 -2072 0
-2046 -2073 0
-2046 -2074 0
-2046 -2075 0
-2046 -2076 0
-2046 -2077 0
-2046 -2078 0
-2046 -2079 0
-2046 -2080 0
-2046 -2081 0
-2046 -2082 0
-2046 -2083 0
-2047 -2048 0
-2047 -2049 0
-2047 -2050 0
-2047 -2051 0
-2047 -2052 0
-2047 -2053 0
-2047 -2054 0
-2047 -2055 0
-2047 -2056 0
-2047 -2057 0
-2047 -2058 0
-2047 -2059 0
-2047 -2060 0
-2047 -2061 0
-2047 -2062 0
-2047 -2063 0
-2047 -2064 0
-2047 -2065 0
-2047 -2066 0
-2047 -2067 0
-2047 -2068 0
-2047 -2069 0
-2047 -2070 0
-2047 -2071 0
-2047 -2072 0
-2047 -2073 0
-2047 -2074 0
-2047 -2075 0
-2047 -2076 0
-2047 -2077 0
-2047 -2078 0
-2047 -2079 0
-2047 -2080 0
-2047 -2081 0
-2047 -2082 0
-2047 -2083 0
-2048 -2049 0
-2048 -2050 0
-2048 -2051 0
-2048 -2052 0
-2048 -2053 0
-2048 -2054 0
-2048 -2055 0
-2048 -2056 0
-2048 -2057 0
-2048 -2058 0
-2048 -2059 0
-2048 -2060 0
-2048 -2061 0
-2048 -2062 0
-2048 -2063 0
-2048 -2064 0
-2048 -2065 0
-2048 -2066 0
-2048 -2067 0
-2048 -2068 0
-2048 -2069 0
-2048 -2070 0
-2048 -2071 0
-2048 -2072 0
-2048 -2073 0
-2048 -2074 0
-2048 -2075 0
-2048 -2076 0
-2048 -2077 0
-2048 -2078 0
-2048 -2079 0
-2048 -2080 0
-2048 -2081 0
-2048 -2082 0
-2048 -2083 0
-2049 -2050 0
-2049 -2051 0
-2049 -2052 0
-2049 -2053 0
-2049 -2054 0
-2049 -2055 0
-2049 -2056 0
-2049 -2057 0
-2049 -2058 0
-2049 -2059 0
-2049 -2060 0
-2049 -2061 0
-2049 -2062 0
-2049 -2063 0
-2049 -2064 0
-2049 -2065 0
-2049 -2066 0
-2049 -2067 0
-2049 -2068 0
-2049 -2069 0
-2049 -2070 0
-2049 -2071 0
-2049 -2072 0
-2049 -2073 0
-2049 -2074 0
-2049 -2075 0
-2049 -2076 0
-2049 -2077 0
-2049 -2078 0
-2049 -2079 0
-2049 -2080 0
-2049 -2081 0
-2049 -2082 0
-2049 -2083 0
-2050 -2051 0
-2050 -2052 0
-2050 -2053 0
-2050 -2054 0
-2050 -2055 0
-2050 -2056 0
-2050 -2057 0
-2050 -2058 0
-2050 -2059 0
-2050 -2060 0
-2050 -2061 0
-2050 -2062 0
-2050 -2063 0
-2050 -2064 0
-2050 -2065 0
-2050 -2066 0
-2050 -2067 0
-2050 -2068 0
-2050 -2069 0
-2050 -2070 0
-2050 -2071 0
-2050 -2072 0
-2050 -2073 0
-2050 -2074 0
-2050 -2075 0
-2050 -2076 0
-2050 -2077 0
-2050 -2078 0
-2050 -2079 0
-2050 -2080 0
-2050 -2081 0
-2050 -2082 0
-2050 -2083 0
-2051 -2052 0
-2051 -2053 0
-2051 -2054 0
-2051 -2055 0
-2051 -2056 0
-2051 -2057 0
-2051 -2058 0
-2051 -2059 0
-2051 -2060 0
-2051 -2061 0
-2051 -2062 0
-2051 -2063 0
-2051 -2064 0
-2051 -2065 0
-2051 -2066 0
-2051 -2067 0
-2051 -2068 0
-2051 -2069 0
-2051 -2070 0
-2051 -2071 0
-2051 -2072 0
-2051 -2073 0
-2051 -2074 0
-2051 -2075 0
-2051 -2076 0
-2051 -2077 0
-2051 -2078 0
-2051 -2079 0
-2051 -2080 0
-2051 -2081 0
-2051 -2082 0
-2051 -2083 0
-2052 -2053 0
-2052 -2054 0
-2052 -2055 0
-2052 -2056 0
-2052 -2057 0
-2052 -2058 0
-2052 -2059 0
-2052 -2060 0
-2052 -2061 0
-2052 -2062 0
-2052 -2063 0
-2052 -2064 0
-2052 -2065 0
-2052 -2066 0
-2052 -2067 0
-2052 -2068 0
-2052 -2069 0
-2052 -2070 0
-2052 -2071 0
-2052 -2072 0
-2052 -2073 0
-2052 -2074 0
-2052 -2075 0
-2052 -2076 0
-2052 -2077 0
-2052 -2078 0
-2052 -2079 0
-2052 -2080 0
-2052 -2081 0
-2052 -2082 0
-2052 -2083 0
-2053 -2054 0
-2053 -2055 0
-2053 -2056 0
-2053 -2057 0
-2053 -2058 0
-2053 -2059 0
-2053 -2060 0
-2053 -2061 0
-2053 -2062 0
-2053 -2063 0
-2053 -2064 0
-2053 -2065 0
-2053 -2066 0
-2053 -2067 0
-2053 -2068 0
-2053 -2069 0
-2053 -2070 0
-2053 -2071 0
-2053 -2072 0
-2053 -2073 0
-2053 -2074 0
-2053 -2075 0
-2053 -2076 0
-2053 -2077 0
-2053 -2078 0
-2053 -2079 0
-2053 -2080 0
-2053 -2081 0
-2053 -2082 0
-2053 -2083 0
-2054 -2055 0
-2054 -2056 0
-2054 -2057 0
-2054 -2058 0
-2054 -2059 0
-2054 -2060 0
-2054 -2061 0
-2054 -2062 0
-2054 -2063 0
-2054 -2064 0
-2054 -2065 0
-2054 -2066 0
-2054 -2067 0
-2054 -2068 0
-2054 -2069 0
-2054 -2070 0
-2054 -2071 0
-2054 -2072 0
-2054 -2073 0
-2054 -2074 0
-2054 -2075 0
-2054 -2076 0
-2054 -2077 0
-2054 -2078 0
-2054 -2079 0
-2054 -2080 0
-2054 -2081 0
-2054 -2082 0
-2054 -2083 0
-2055 -2056 0
-2055 -2057 0
-2055 -2058 0
-2055 -2059 0
-2055 -2060 0
-2055 -2061 0
-2055 -2062 0
-2055 -2063 0
-2055 -2064 0
-2055 -2065 0
-2055 -2066 0
-2055 -2067 0
-2055 -2068 0
-2055 -2069 0
-2055 -2070 0
-2055 -2071 0
-2055 -2072 0
-2055 -2073 0
-2055 -2074 0
-2055 -2075 0
-2055 -2076 0
-2055 -2077 0
-2055 -2078 0
-2055 -2079 0
-2055 -2080 0
-2055 -2081 0
-2055 -2082 0
-2055 -2083 0
-2056 -2057 0
-2056 -2058 0
-2056 -2059 0
-2056 -2060 0
-2056 -2061 0
-2056 -2062 0
-2056 -2063 0
-2056 -2064 0
-2056 -2065 0
-2056 -2066 0
-2056 -2067 0
-2056 -2068 0
-2056 -2069 0
-2056 -2070 0
-2056 -2071 0
-2056 -2072 0
-2056 -2073 0
-2056 -2074 0
-2056 -2075 0
-2056 -2076 0
-2056 -2077 0
-2056 -2078 0
-2056 -2079 0
-2056 -2080 0
-2056 -2081 0
-2056 -2082 0
-2056 -2083 0
-2057 -2058 0
-2057 -2059 0
-2057 -2060 0
-2057 -2061 0
-2057 -2062 0
-2057 -2063 0
-2057 -2064 0
-2057 -2065 0
-2057 -2066 0
-2057 -2067 0
-2057 -2068 0
-2057 -2069 0
-2057 -2070 0
-2057 -2071 0
-2057 -2072 0
-2057 -2073 0
-2057 -2074 0
-2057 -2075 0
-2057 -2076 0
-2057 -2077 0
-2057 -2078 0
-2057 -2079 0
-2057 -2080 0
-2057 -2081 0
-2057 -2082 0
-2057 -2083 0
-2058 -2059 0
-2058 -2060 0
-2058 -2061 0
-2058 -2062 0
-2058 -2063 0
-2058 -2064 0
-2058 -2065 0
-2058 -2066 0
-2058 -2067 0
-2058 -2068 0
-2058 -2069 0
-2058 -2070 0
-2058 -2071 0
-2058 -2072 0
-2058 -2073 0
-2058 -2074 0
-2058 -2075 0
-2058 -2076 0
-2058 -2077 0
-2058 -2078 0
-2058 -2079 0
-2058 -2080 0
-2058 -2081 0
-2058 -2082 0
-2058 -2083 0
-2059 -2060 0
-2059 -2061 0
-2059 -2062 0
-2059 -2063 0
-2059 -2064 0
-2059 -2065 0
-2059 -2066 0
-2059 -2067 0
-2059 -2068 0
-2059 -2069 0
-2059 -2070 0
-2059 -2071 0
-2059 -2072 0
-2059 -2073 0
-2059 -2074 0
-2059 -2075 0
-2059 -2076 0
-2059 -2077 0
-2059 -2078 0
-2059 -2079 0
-2059 -2080 0
-2059 -2081 0
-2059 -2082 0
-2059 -2083 0
-2060 -2061 0
-2060 -2062 0
-2060 -2063 0
-2060 -2064 0
-2060 -2065 0
-2060 -2066 0
-2060 -2067 0
-2060 -2068 0
-2060 -2069 0
-2060 -2070 0
-2060 -2071 0
-2060 -2072 0
-2060 -2073 0
-2060 -2074 0
-2060 -2075 0
-2060 -2076 0
-2060 -2077 0
-2060 -2078 0
-2060 -2079 0
-2060 -2080 0
-2060 -2081 0
-2060 -2082 0
-2060 -2083 0
-2061 -2062 0
-2061 -2063 0
-2061 -2064 0
-2061 -2065 0
-2061 -2066 0
-2061 -2067 0
-2061 -2068 0
-2061 -2069 0
-2061 -2070 0
-2061 -2071 0
-2061 -2072 0
-2061 -2073 0
-2061 -2074 0
-2061 -2075 0
-2061 -2076 0
-2061 -2077 0
-2061 -2078 0
-2061 -2079 0
-2061 -2080 0
-2061 -2081 0
-2061 -2082 0
-2061 -2083 0
-2062 -2063 0
-2062 -2064 0
-2062 -2065 0
-2062 -2066 0
-2062 -2067 0
-2062 -2068 0
-2062 -2069 0
-2062 -2070 0
-2062 -2071 0
-2062 -2072 0
-2062 -2073 0
-2062 -2074 0
-2062 -2075 0
-2062 -2076 0
-2062 -2077 0
-2062 -2078 0
-2062 -2079 0
-2062 -2080 0
-2062 -2081 0
-2062 -2082 0
-2062 -2083 0
-2063 -2064 0
-2063 -2065 0
-2063 -2066 0
-2063 -2067 0
-2063 -2068 0
-2063 -2069 0
-2063 -2070 0
-2063 -2071 0
-2063 -2072 0
-2063 -2073 0
-2063 -2074 0
-2063 -2075 0
-2063 -2076 0
-2063 -2077 0
-2063 -2078 0
-2063 -2079 0
-2063 -2080 0
-2063 -2081 0
-2063 -2082 0
-2063 -2083 0
-2064 -2065 0
-2064 -2066 0
-2064 -2067 0
-2064 -2068 0
-2064 -2069 0
-2064 -2070 0
-2064 -2071 0
-2064 -2072 0
-2064 -2073 0
-2064 -2074 0
-2064 -2075 0
-2064 -2076 0
-2064 -2077 0
-2064 -2078 0
-2064 -2079 0
-2064 -2080 0
-2064 -2081 0
-2064 -2082 0
-2064 -2083 0
-2065 -2066 0
-2065 -2067 0
-2065 -2068 0
-2065 -2069 0
-2065 -2070 0
-2065 -2071 0
-2065 -2072 0
-2065 -2073 0
-2065 -2074 0
-2065 -2075 0
-2065 -2076 0
-2065 -2077 0
-2065 -2078 0
-2065 -2079 0
-2065 -2080 0
-2065 -2081 0
-2065 -2082 0
-2065 -2083 0
-2066 -2067 0
-2066 -2068 0
-2066 -2069 0
-2066 -2070 0
-2066 -2071 0
-2066 -2072 0
-2066 -2073 0
-2066 -2074 0
-2066 -2075 0
-2066 -2076 0
-2066 -2077 0
-2066 -2078 0
-2066 -2079 0
-2066 -2080 0
-2066 -2081 0
-2066 -2082 0
-2066 -2083 0
-2067 -2068 0
-2067 -2069 0
-2067 -2070 0
-2067 -2071 0
-2067 -2072 0
-2067 -2073 0
-2067 -2074 0
-2067 -2075 0
-2067 -2076 0
-2067 -2077 0
-2067 -2078 0
-2067 -2079 0
-2067 -2080 0
-2067 -2081 0
-2067 -2082 0
-2067 -2083 0
-2068 -2069 0
-2068 -2070 0
-2068 -2071 0
-2068 -2072 0
-2068 -2073 0
-2068 -2074 0
-2068 -2075 0
-2068 -2076 0
-2068 -2077 0
-2068 -2078 0
-2068 -2079 0
-2068 -2080 0
-2068 -2081 0
-2068 -2082 0
-2068 -2083 0
-2069 -2070 0
-2069 -2071 0
-2069 -2072 0
-2069 -2073 0
-2069 -2074 0
-2069 -2075 0
-2069 -2076 0
-2069 -2077 0
-2069 -2078 0
-2069 -2079 0
-2069 -2080 0
-2069 -2081 0
-2069 -2082 0
-2069 -2083 0
-2070 -2071 0
-2070 -2072 0
-2070 -2073 0
-2070 -2074 0
-2070 -2075 0
-2070 -2076 0
-2070 -2077 0
-2070 -2078 0
-2070 -2079 0
-2070 -2080 0
-2070 -2081 0
-2070 -2082 0
-2070 -2083 0
-2071 -2072 0
-2071 -2073 0
-2071 -2074 0
-2071 -2075 0
-2071 -2076 0
-2071 -2077 0
-2071 -2078 0
-2071 -2079 0
-2071 -2080 0
-2071 -2081 0
-2071 -2082 0
-2071 -2083 0
-2072 -2073 0
-2072 -2074 0
-2072 -2075 0
-2072 -2076 0
-2072 -2077 0
-2072 -2078 0
-2072 -2079 0
-2072 -2080 0
-2072 -2081 0
-2072 -2082 0
-2072 -2083 0
-2073 -2074 0
-2073 -2075 0
-2073 -2076 0
-2073 -2077 0
-2073 -2078 0
-2073 -2079 0
-2073 -2080 0
-2073 -2081 0
-2073 -2082 0
-2073 -2083 0
-2074 -2075 0
-2074 -2076 0
-2074 -2077 0
-2074 -2078 0
-2074 -2079 0
-2074 -2080 0
-2074 -2081 0
-2074 -2082 0
-2074 -2083 0
-2075 -2076 0
-2075 -2077 0
-2075 -2078 0
-2075 -2079 0
-2075 -2080 0
-2075 -2081 0
-2075 -2082 0
-2075 -2083 0
-2076 -2077 0
-2076 -2078 0
-2076 -2079 0
-2076 -2080 0
-2076 -2081 0
-2076 -2082 0
-2076 -2083 0
-2077 -2078 0
-2077 -2079 0
-2077 -2080 0
-2077 -2081 0
-2077 -2082 0
-2077 -2083 0
-2078 -2079 0
-2078 -2080 0
-2078 -2081 0
-2078 -2082 0
-2078 -2083 0
-2079 -2080 0
-2079 -2081 0
-2079 -2082 0
-2079 -2083 0
-2080 -2081 0
-2080 -2082 0
-2080 -2083 0
-2081 -2082 0
-2081 -2083 0
-2082 -2083 0
-1961 63 2023 0
-1961 -63 2022 0
-1962 63 2024 0
-1962 -63 2023 0
-1963 63 2025 0
-1963 -63 2024 0
-1964 63 2026 0
-1964 -63 2025 0
-1965 63 2027 0
-1965 -63 2026 0
-1966 63 2028 0
-1966 -63 2027 0
-1967 63 2029 0
-1967 -63 2028 0
-1968 63 2030 0
-1968 -63 2029 0
-1969 63 2031 0
-1969 -63 2030 0
-1970 63 2032 0
-1970 -63 2031 0
-1971 63 2033 0
-1971 -63 2032 0
-1972 63 2034 0
-1972 -63 2033 0
-1973 63 2035 0
-1973 -63 2034 0
-1974 63 2036 0
-1974 -63 2035 0
-1975 63 2037 0
-1975 -63 2036 0
-1976 63 2038 0
-1976 -63 2037 0
-1977 63 2039 0
-1977 -63 2038 0
-1978 63 2040 0
-1978 -63 2039 0
-1979 63 2041 0
-1979 -63 2040 0
-1980 63 2042 0
-1980 -63 2041 0
-1981 63 2043 0
-1981 -63 2042 0
-1982 63 2044 0
-1982 -63 2043 0
-1983 63 2045 0
-1983 -63 2044 0
-1984 63 2046 0
-1984 -63 2045 0
-1985 63 2047 0
-1985 -63 2046 0
-1986 63 2048 0
-1986 -63 2047 0
-1987 63 2049 0
-1987 -63 2048 0
-1988 63 2050 0
-1988 -63 2049 0
-1989 63 2051 0
-1989 -63 2050 0
-1990 63 2052 0
-1990 -63 2051 0
-1991 63 2053 0
-1991 -63 2052 0
-1992 63 2054 0
-1992 -63 2053 0
-1993 63 2055 0
-1993 -63 2054 0
-1994 63 2056 0
-1994 -63 2055 0
-1995 63 2057 0
-1995 -63 2056 0
-1996 63 2058 0
-1996 -63 2057 0
-1997 63 2059 0
-1997 -63 2058 0
-1998 63 2060 0
-1998 -63 2059 0
-1999 63 2061 0
-1999 -63 2060 0
-2000 63 2062 0
-2000 -63 2061 0
-2001 63 2063 0
-2001 -63 2062 0
-2002 63 2064 0
-2002 -63 2063 0
-2003 63 2065 0
-2003 -63 2064 0
-2004 63 2066 0
-2004 -63 2065 0
-2005 63 2067 0
-2005 -63 2066 0
-2006 63 2068 0
-2006 -63 2067 0
-2007 63 2069 0
-2007 -63 2068 0
-2008 63 2070 0
-2008 -63 2069 0
-2009 63 2071 0
-2009 -63 2070 0
-2010 63 2072 0
-2010 -63 2071 0
-2011 63 2073 0
-2011 -63 2072 0
-2012 63 2074 0
-2012 -63 2073 0
-2013 63 2075 0
-2013 -63 2074 0
-2014 63 2076 0
-2014 -63 2075 0
-2015 63 2077 0
-2015 -63 2076 0
-2016 63 2078 0
-2016 -63 2077 0
-2017 63 2079 0
-2017 -63 2078 0
-2018 63 2080 0
-2018 -63 2079 0
-2019 63 2081 0
-2019 -63 2080 0
-2020 63 2082 0
-2020 -63 2081 0
-2021 63 2083 0
-2021 -63 2082 0
2084 2085 2086 2087 2088 2089 2090 2091 2092 2093 2094 2095 2096 2097 2098 2099 2100 2101 2102 2103 2104 2105 2106 2107 2108 2109 2110 2111 2112 2113 2114 2115 2116 2117 2118 2119 2120 2121 2122 2123 2124 2125 2126 2127 2128 2129 2130 2131 2132 2133 2134 2135 2136 2137 2138 2139 2140 2141 2142 2143 2144 2145 2146 0
-2084 -2085 0
-2084 -2086 0
-2084 -2087 0
-2084 -2088 0
-2084 -2089 0
-2084 -2090 0
-2084 -2091 0
-2084 -2092 0
-2084 -2093 0
-2084 -2094 0
-2084 -2095 0
-2084 -2096 0
-2084 -2097 0
-2084 -2098 0
-2084 -2099 0
-2084 -2100 0
-2084 -2101 0
-2084 -2102 0
-2084 -2103 0
-2084 -2104 0
-2084 -2105 0
-2084 -2106 0
-2084 -2107 0
-2084 -2108 0
-2084 -2109 0
-2084 -2110 0
-2084 -2111 0
-2084 -2112 0
-2084 -2113 0
-2084 -2114 0
-2084 -2115 0
-2084 -2116 0
-2084 -2117 0
-2084 -2118 0
-2084 -2119 0
-2084 -2120 0
-2084 -2121 0
-2084 -2122 0
-2084 -2123 0
-2084 -2124 0
-2084 -2125 0
-2084 -2126 0
-2084 -2127 0
-2084 -2128 0
-2084 -2129 0
-2084 -2130 0
-2084 -2131 0
-2084 -2132 0
-2084 -2133 0
-2084 -2134 0
-2084 -2135 0
-2084 -2136 0
-2084 -2137 0
-2084 -2138 0
-2084 -2139 0
-2084 -2140 0
-2084 -2141 0
-2084 -2142 0
-2084 -2143 0
-2084 -2144 0
-2084 -2145 0
-2084 -2146 0
-2085 -2086 0
-2085 -2087 0
-2085 -2088 0
-2085 -2089 0
-2085 -2090 0
-2085 -2091 0
-2085 -2092 0
-2085 -2093 0
-2085 -2094 0
-2085 -2095 0
-2085 -2096 0
-2085 -2097 0
-2085 -2098 0
-2085 -2099 0
-2085 -2100 0
-2085 -2101 0
-2085 -2102 0
-2085 -2103 0
-2085 -2104 0
-2085 -2105 0
-2085 -2106 0
-2085 -2107 0
-2085 -2108 0
-2085 -2109 0
-2085 -2110 0
-2085 -2111 0
-2085 -2112 0
-2085 -2113 0
-2085 -2114 0
-2085 -2115 0
-2085 -2116 0
-2085 -2117 0
-2085 -2118 0
-2085 -2119 0
-2085 -2120 0
-2085 -2121 0
-2085 -2122 0
-2085 -2123 0
-2085 -2124 0
-2085 -2125 0
-2085 -2126 0
-2085 -2127 0
-2085 -2128 0
-2085 -2129 0
-2085 -2130 0
-2085 -2131 0
-2085 -2132 0
-2085 -2133 0
-2085 -2134 0
-2085 -2135 0
-2085 -2136 0
-2085 -2137 0
-2085 -2138 0
-2085 -2139 0
-2085 -2140 0
-2085 -2141 0
-2085 -2142 0
-2085 -2143 0
-2085 -2144 0
-2085 -2145 0
-2085 -2146 0
-2086 -2087 0
-2086 -2088 0
-2086 -2089 0
-2086 -2090 0
-2086 -2091 0
-2086 -2092 0
-2086 -2093 0
-2086 -2094 0
-2086 -2095 0
-2086 -2096 0
-2086 -2097 0
-2086 -2098 0
-2086 -2099 0
-2086 -2100 0
-2086 -2101 0
-2086 -2102 0
-2086 -2103 0
-2086 -2104 0
-2086 -2105 0
-2086 -2106 0
-2086 -2107 0
-2086 -2108 0
-2086 -2109 0
-2086 -2110 0
-2086 -2111 0
-2086 -2112 0
-2086 -2113 0
-2086 -2114 0
-2086 -2115 0
-2086 -2116 0
-2086 -2117 0
-2086 -2118 0
-2086 -2119 0
-2086 -2120 0
-2086 -2121 0
-2086 -2122 0
-2086 -2123 0
-2086 -2124 0
-2086 -2125 0
-2086 -2126 0
-2086 -2127 0
-2086 -2128 0
-2086 -2129 0
-2086 -2130 0
-2086 -2131 0
-2086 -2132 0
-2086 -2133 0
-2086 -2134 0
-2086 -2135 0
-2086 -2136 0
-2086 -2137 0
-2086 -2138 0
-2086 -2139 0
-2086 -2140 0
-2086 -2141 0
-2086 -2142 0
-2086 -2143 0
-2086 -2144 0
-2086 -2145 0
-2086 -2146 0
-2087 -2088 0
-2087 -2089 0
-2087 -2090 0
-2087 -2091 0
-2087 -2092 0
-2087 -2093 0
-2087 -2094 0
-2087 -2095 0
-2087 -2096 0
-2087 -2097 0
-2087 -2098 0
-2087 -2099 0
-2087 -2100 0
-2087 -2101 0
-2087 -2102 0
-2087 -2103 0
-2087 -2104 0
-2087 -2105 0
-2087 -2106 0
-2087 -2107 0
-2087 -2108 0
-2087 -2109 0
-2087 -2110 0
-2087 -2111 0
-2087 -2112 0
-2087 -2113 0
-2087 -2114 0
-2087 -2115 0
-2087 -2116 0
-2087 -2117 0
-2087 -2118 0
-2087 -2119 0
-2087 -2120 0
-2087 -2121 0
-2087 -2122 0
-2087 -2123 0
-2087 -2124 0
-2087 -2125 0
-2087 -2126 0
-2087 -2127 0
-2087 -2128 0
-2087 -2129 0
-2087 -2130 0
-2087 -2131 0
-2087 -2132 0
-2087 -2133 0
-2087 -2134 0
-2087 -2135 0
-2087 -2136 0
-2087 -2137 0
-2087 -2138 0
-2087 -2139 0
-2087 -2140 0
-2087 -2141 0
-2087 -2142 0
-2087 -2143 0
-2087 -2144 0
-2087 -2145 0
-2087 -2146 0
-2088 -2089 0
-2088 -2090 0
-2088 -2091 0
-2088 -2092 0
-2088 -2093 0
-2088 -2094 0
-2088 -2095 0
-2088 -2096 0
-2088 -2097 0
-2088 -2098 0
-2088 -2099 0
-2088 -2100 0
-2088 -2101 0
-2088 -2102 0
-2088 -2103 0
-2088 -2104 0
-2088 -2105 0
-2088 -2106 0
-2088 -2107 0
-2088 -2108 0
-2088 -2109 0
-2088 -2110 0
-2088 -2111 0
-2088 -2112 0
-2088 -2113 0
-2088 -2114 0
-2088 -2115 0
-2088 -2116 0
-2088 -2117 0
-2088 -2118 0
-2088 -2119 0
-2088 -2120 0
-2088 -2121 0
-2088 -2122 0
-2088 -2123 0
-2088 -2124 0
-2088 -2125 0
-2088 -2126 0
-2088 -2127 0
-2088 -2128 0
-2088 -2129 0
-2088 -2130 0
-2088 -2131 0
-2088 -2132 0
-2088 -2133 0
-2088 -2134 0
-2088 -2135 0
-2088 -2136 0
-2088 -2137 0
-2088 -2138 0
-2088 -2139 0
-2088 -2140 0
-2088 -2141 0
-2088 -2142 0
-2088 -2143 0
-2088 -2144 0
-2088 -2145 0
-2088 -2146 0
-2089 -2090 0
-2089 -2091 0
-2089 -2092 0
-2089 -2093 0
-2089 -2094 0
-2089 -2095 0
-2089 -2096 0
-2089 -2097 0
-2089 -2098 0
-2089 -2099 0
-2089 -2100 0
-2089 -2101 0
-2089 -2102 0
-2089 -2103 0
-2089 -2104 0
-2089 -2105 0
-2089 -2106 0
-2089 -2107 0
-2089 -2108 0
-2089 -2109 0
-2089 -2110 0
-2089 -2111 0
-2089 -2112 0
-2089 -2113 0
-2089 -2114 0
-2089 -2115 0
-2089 -2116 0
-2089 -2117 0
-2089 -2118 0
-2089 -2119 0
-2089 -2120 0
-2089 -2121 0
-2089 -2122 0
-2089 -2123 0
-2089 -2124 0
-2089 -2125 0
-2089 -2126 0
-2089 -2127 0
-2089 -2128 0
-2089 -2129 0
-2089 -2130 0
-2089 -2131 0
-2089 -2132 0
-2089 -2133 0
-2089 -2134 0
-2089 -2135 0
-2089 -2136 0
-2089 -2137 0
-2089 -2138 0
-2089 -2139 0
-2089 -2140 0
-2089 -2141 0
-2089 -2142 0
-2089 -2143 0
-2089 -2144 0
-2089 -2145 0
-2089 -2146 0
-2090 -2091 0
-2090 -2092 0
-2090 -2093 0
-2090 -2094 0
-2090 -2095 0
-2090 -2096 0
-2090 -2097 0
-2090 -2098 0
-2090 -2099 0
-2090 -2100 0
-2090 -2101 0
-2090 -2102 0
-2090 -2103 0
-2090 -2104 0
-2090 -2105 0
-2090 -2106 0
-2090 -2107 0
-2090 -2108 0
-2090 -2109 0
-2090 -2110 0
-2090 -2111 0
-2090 -2112 0
-2090 -2113 0
-2090 -2114 0
-2090 -2115 0
-2090 -2116 0
-2090 -2117 0
-2090 -2118 0
-2090 -2119 0
-2090 -2120 0
-2090 -2121 0
-2090 -2122 0
-2090 -2123 0
-2090 -2124 0
-2090 -2125 0
-2090 -2126 0
-2090 -2127 0
-2090 -2128 0
-2090 -2129 0
-2090 -2130 0
-2090 -2131 0
-2090 -2132 0
-2090 -2133 0
-2090 -2134 0
-2090 -2135 0
-2090 -2136 0
-2090 -2137 0
-2090 -2138 0
-2090 -2139 0
-2090 -2140 0
-2090 -2141 0
-2090 -2142 0
-2090 -2143 0
-2090 -2144 0
-2090 -2145 0
-2090 -2146 0
-2091 -2092 0
-2091 -2093 0
-2091 -2094 0
-2091 -2095 0
-2091 -2096 0
-2091 -2097 0
-2091 -2098 0
-2091 -2099 0
-2091 -2100 0
-2091 -2101 0
-2091 -2102 0
-2091 -2103 0
-2091 -2104 0
-2091 -2105 0
-2091 -2106 0
-2091 -2107 0
-2091 -2108 0
-2091 -2109 0
-2091 -2110 0
-2091 -2111 0
-2091 -2112 0
-2091 -2113 0
-2091 -2114 0
-2091 -2115 0
-2091 -2116 0
-2091 -2117 0
-2091 -2118 0
-2091 -2119 0
-2091 -2120 0
-2091 -2121 0
-2091 -2122 0
-2091 -2123 0
-2091 -2124 0
-2091 -2125 0
-2091 -2126 0
-2091 -2127 0
-2091 -2128 0
-2091 -2129 0
-2091 -2130 0
-2091 -2131 0
-2091 -2132 0
-2091 -2133 0
-2091 -2134 0
-2091 -2135 0
-2091 -2136 0
-2091 -2137 0
-2091 -2138 0
-2091 -2139 0
-2091 -2140 0
-2091 -2141 0
-2091 -2142 0
-2091 -2143 0
-2091 -2144 0
-2091 -2145 0
-2091 -2146 0
-2092 -2093 0
-2092 -2094 0
-2092 -2095 0
-2092 -2096 0
-2092 -2097 0
-2092 -2098 0
-2092 -2099 0
-2092 -2100 0
-2092 -2101 0
-2092 -2102 0
-2092 -2103 0
-2092 -2104 0
-2092 -2105 0
-2092 -2106 0
-2092 -2107 0
-2092 -2108 0
-2092 -2109 0
-2092 -2110 0
-2092 -2111 0
-2092 -2112 0
-2092 -2113 0
-2092 -2114 0
-2092 -2115 0
-2092 -2116 0
-2092 -2117 0
-2092 -2118 0
-2092 -2119 0
-2092 -2120 0
-2092 -2121 0
-2092 -2122 0
-2092 -2123 0
-2092 -2124 0
-2092 -2125 0
-2092 -2126 0
-2092 -2127 0
-2092 -2128 0
-2092 -2129 0
-2092 -2130 0
-2092 -2131 0
-2092 -2132 0
-2092 -2133 0
-2092 -2134 0
-2092 -2135 0
-2092 -2136 0
-2092 -2137 0
-2092 -2138 0
-2092 -2139 0
-2092 -2140 0
-2092 -2141 0
-2092 -2142 0
-2092 -2143 0
-2092 -2144 0
-2092 -2145 0
-2092 -2146 0
-2093 -2094 0
-2093 -2095 0
-2093 -2096 0
-2093 -2097 0
-2093 -2098 0
-2093 -2099 0
-2093 -2100 0
-2093 -2101 0
-2093 -2102 0
-2093 -2103 0
-2093 -2104 0
-2093 -2105 0
-2093 -2106 0
-2093 -2107 0
-2093 -2108 0
-2093 -2109 0
-2093 -2110 0
-2093 -2111 0
-2093 -2112 0
-2093 -2113 0
-2093 -2114 0
-2093 -2115 0
-2093 -2116 0
-2093 -2117 0
-2093 -2118 0
-2093 -2119 0
-2093 -2120 0
-2093 -2121 0
-2093 -2122 0
-2093 -2123 0
-2093 -2124 0
-2093 -2125 0
-2093 -2126 0
-2093 -2127 0
-2093 -2128 0
-2093 -2129 0
-2093 -2130 0
-2093 -2131 0
-2093 -2132 0
-2093 -2133 0
-2093 -2134 0
-2093 -2135 0
-2093 -2136 0
-2093 -2137 0
-2093 -2138 0
-2093 -2139 0
-2093 -2140 0
-2093 -2141 0
-2093 -2142 0
-2093 -2143 0
-2093 -2144 0
-2093 -2145 0
-2093 -2146 0
-2094 -2095 0
-2094 -2096 0
-2094 -2097 0
-2094 -2098 0
-2094 -2099 0
-2094 -2100 0
-2094 -2101 0
-2094 -2102 0
-2094 -2103 0
-2094 -2104 0
-2094 -2105 0
-2094 -2106 0
-2094 -2107 0
-2094 -2108 0
-2094 -2109 0
-2094 -2110 0
-2094 -2111 0
-2094 -2112 0
-2094 -2113 0
-2094 -2114 0
-2094 -2115 0
-2094 -2116 0
-2094 -2117 0
-2094 -2118 0
-2094 -2119 0
-2094 -2120 0
-2094 -2121 0
-2094 -2122 0
-2094 -2123 0
-2094 -2124 0
-2094 -2125 0
-2094 -2126 0
-2094 -2127 0
-2094 -2128 0
-2094 -2129 0
-2094 -2130 0
-2094 -2131 0
-2094 -2132 0
-2094 -2133 0
-2094 -2134 0
-2094 -2135 0
-2094 -2136 0
-2094 -2137 0
-2094 -2138 0
-2094 -2139 0
-2094 -2140 0
-2094 -2141 0
-2094 -2142 0
-2094 -2143 0
-2094 -2144 0
-2094 -2145 0
-2094 -2146 0
-2095 -2096 0
-2095 -2097 0
-2095 -2098 0
-2095 -2099 0
-2095 -2100 0
-2095 -2101 0
-2095 -2102 0
-2095 -2103 0
-2095 -2104 0
-2095 -2105 0
-2095 -2106 0
-2095 -2107 0
-2095 -2108 0
-2095 -2109 0
-2095 -2110 0
-2095 -2111 0
-2095 -2112 0
-2095 -2113 0
-2095 -2114 0
-2095 -2115 0
-2095 -2116 0
-2095 -2117 0
-2095 -2118 0
-2095 -2119 0
-2095 -2120 0
-2095 -2121 0
-2095 -2122 0
-2095 -2123 0
-2095 -2124 0
-2095 -2125 0
-2095 -2126 0
-2095 -2127 0
-2095 -2128 0
-2095 -2129 0
-2095 -2130 0
-2095 -2131 0
-2095 -2132 0
-2095 -2133 0
-2095 -2134 0
-2095 -2135 0
-2095 -2136 0
-2095 -2137 0
-2095 -2138 0
-2095 -2139 0
-2095 -2140 0
-2095 -2141 0
-2095 -2142 0
-2095 -2143 0
-2095 -2144 0
-2095 -2145 0
-2095 -2146 0
-2096 -2097 0
-2096 -2098 0
-2096 -2099 0
-2096 -2100 0
-2096 -2101 0
-2096 -2102 0
-2096 -2103 0
-2096 -2104 0
-2096 -2105 0
-2096 -2106 0
-2096 -2107 0
-2096 -2108 0
-2096 -2109 0
-2096 -2110 0
-2096 -2111 0
-2096 -2112 0
-2096 -2113 0
-2096 -2114 0
-2096 -2115 0
-2096 -2116 0
-2096 -2117 0
-2096 -2118 0
-2096 -2119 0
-2096 -2120 0
-2096 -2121 0
-2096 -2122 0
-2096 -2123 0
-2096 -2124 0
-2096 -2125 0
-2096 -2126 0
-2096 -2127 0
-2096 -2128 0
-2096 -2129 0
-2096 -2130 0
-2096 -2131 0
-2096 -2132 0
-2096 -2133 0
-2096 -2134 0
-2096 -2135 0
-2096 -2136 0
-2096 -2137 0
-2096 -2138 0
-2096 -2139 0
-2096 -2140 0
-2096 -2141 0
-2096 -2142 0
-2096 -2143 0
-2096 -2144 0
-2096 -2145 0
-2096 -2146 0
-2097 -2098 0
-2097 -2099 0
-2097 -2100 0
-2097 -2101 0
-2097 -2102 0
-2097 -2103 0
-2097 -2104 0
-2097 -2105 0
-2097 -2106 0
-2097 -2107 0
-2097 -2108 0
-2097 -2109 0
-2097 -2110 0
-2097 -2111 0
-2097 -2112 0
-2097 -2113 0
-2097 -2114 0
-2097 -2115 0
-2097 -2116 0
-2097 -2117 0
-2097 -2118 0
-2097 -2119 0
-2097 -2120 0
-2097 -2121 0
-2097 -2122 0
-2097 -2123 0
-2097 -2124 0
-2097 -2125 0
-2097 -2126 0
-2097 -2127 0
-2097 -2128 0
-2097 -2129 0
-2097 -2130 0
-2097 -2131 0
-2097 -2132 0
-2097 -2133 0
-2097 -2134 0
-2097 -2135 0
-2097 -2136 0
-2097 -2137 0
-2097 -2138 0
-2097 -2139 0
-2097 -2140 0
-2097 -2141 0
-2097 -2142 0
-2097 -2143 0
-2097 -2144 0
-2097 -2145 0
-2097 -2146 0
-2098 -2099 0
-2098 -2100 0
-2098 -2101 0
-2098 -2102 0
-2098 -2103 0
-2098 -2104 0
-2098 -2105 0
-2098 -2106 0
-2098 -2107 0
-2098 -2108 0
-2098 -2109 0
-2098 -2110 0
-2098 -2111 0
-2098 -2112 0
-2098 -2113 0
-2098 -2114 0
-2098 -2115 0
-2098 -2116 0
-2098 -2117 0
-2098 -2118 0
-2098 -2119 0
-2098 -2120 0
-2098 -2121 0
-2098 -2122 0
-2098 -2123 0
-2098 -2124 0
-2098 -2125 0
-2098 -2126 0
-2098 -2127 0
-2098 -2128 0
-2098 -2129 0
-2098 -2130 0
-2098 -2131 0
-2098 -2132 0
-2098 -2133 0
-2098 -2134 0
-2098 -2135 0
-2098 -2136 0
-2098 -2137 0
-2098 -2138 0
-2098 -2139 0
-2098 -2140 0
-2098 -2141 0
-2098 -2142 0
-2098 -2143 0
-2098 -2144 0
-2098 -2145 0
-2098 -2146 0
-2099 -2100 0
-2099 -2101 0
-2099 -2102 0
-2099 -2103 0
-2099 -2104 0
-2099 -2105 0
-2099 -2106 0
-2099 -2107 0
-2099 -2108 0
-2099 -2109 0
-2099 -2110 0
-2099 -2111 0
-2099 -2112 0
-2099 -2113 0
-2099 -2114 0
-2099 -2115 0
-2099 -2116 0
-2099 -2117 0
-2099 -2118 0
-2099 -2119 0
-2099 -2120 0
-2099 -2121 0
-2099 -2122 0
-2099 -2123 0
-2099 -2124 0
-2099 -2125 0
-2099 -2126 0
-2099 -2127 0
-2099 -2128 0
-2099 -2129 0
-2099 -2130 0
-2099 -2131 0
-2099 -2132 0
-2099 -2133 0
-2099 -2134 0
-2099 -2135 0
-2099 -2136 0
-2099 -2137 0
-2099 -2138 0
-2099 -2139 0
-2099 -2140 0
-2099 -2141 0
-2099 -2142 0
-2099 -2143 0
-2099 -2144 0
-2099 -2145 0
-2099 -2146 0
-2100 -2101 0
-2100 -2102 0
-2100 -2103 0
-2100 -2104 0
-2100 -2105 0
-2100 -2106 0
-2100 -2107 0
-2100 -2108 0
-2100 -2109 0
-2100 -2110 0
-2100 -2111 0
-2100 -2112 0
-2100 -2113 0
-2100 -2114 0
-2100 -2115 0
-2100 -2116 0
-2100 -2117 0
-2100 -2118 0
-2100 -2119 0
-2100 -2120 0
-2100 -2121 0
-2100 -2122 0
-2100 -2123 0
-2100 -2124 0
-2100 -2125 0
-2100 -2126 0
-2100 -2127 0
-2100 -2128 0
-2100 -2129 0
-2100 -2130 0
-2100 -2131 0
-2100 -2132 0
-2100 -2133 0
-2100 -2134 0
-2100 -2135 0
-2100 -2136 0
-2100 -2137 0
-2100 -2138 0
-2100 -2139 0
-2100 -2140 0
-2100 -2141 0
-2100 -2142 0
-2100 -2143 0
-2100 -2144 0
-2100 -2145 0
-2100 -2146 0
-2101 -2102 0
-2101 -2103 0
-2101 -2104 0
-2101 -2105 0
-2101 -2106 0
-2101 -2107 0
-2101 -2108 0
-2101 -2109 0
-2101 -2110 0
-2101 -2111 0
-2101 -2112 0
-2101 -2113 0
-2101 -2114 0
-2101 -2115 0
-2101 -2116 0
-2101 -2117 0
-2101 -2118 0
-2101 -2119 0
-2101 -2120 0
-2101 -2121 0
-2101 -2122 0
-2101 -2123 0
-2101 -2124 0
-2101 -2125 0
-2101 -2126 0
-2101 -2127 0
-2101 -2128 0
-2101 -2129 0
-2101 -2130 0
-2101 -2131 0
-2101 -2132 0
-2101 -2133 0
-2101 -2134 0
-2101 -2135 0
-2101 -2136 0
-2101 -2137 0
-2101 -2138 0
-2101 -2139 0
-2101 -2140 0
-2101 -2141 0
-2101 -2142 0
-2101 -2143 0
-2101 -2144 0
-2101 -2145 0
-2101 -2146 0
-2102 -2103 0
-2102 -2104 0
-2102 -2105 0
-2102 -2106 0
-2102 -2107 0
-2102 -2108 0
-2102 -2109 0
-2102 -2110 0
-2102 -2111 0
-2102 -2112 0
-2102 -2113 0
-2102 -2114 0
-2102 -2115 0
-2102 -2116 0
-2102 -2117 0
-2102 -2118 0
-2102 -2119 0
-2102 -2120 0
-2102 -2121 0
-2102 -2122 0
-2102 -2123 0
-2102 -2124 0
-2102 -2125 0
-2102 -2126 0
-2102 -2127 0
-2102 -2128 0
-2102 -2129 0
-2102 -2130 0
-2102 -2131 0
-2102 -2132 0
-2102 -2133 0
-2102 -2134 0
-2102 -2135 0
-2102 -2136 0
-2102 -2137 0
-2102 -2138 0
-2102 -2139 0
-2102 -2140 0
-2102 -2141 0
-2102 -2142 0
-2102 -2143 0
-2102 -2144 0
-2102 -2145 0
-2102 -2146 0
-2103 -2104 0
-2103 -2105 0
-2103 -2106 0
-2103 -2107 0
-2103 -2108 0
-2103 -2109 0
-2103 -2110 0
-2103 -2111 0
-2103 -2112 0
-2103 -2113 0
-2103 -2114 0
-2103 -2115 0
-2103 -2116 0
-2103 -2117 0
-2103 -2118 0
-2103 -2119 0
-2103 -2120 0
-2103 -2121 0
-2103 -2122 0
-2103 -2123 0
-2103 -2124 0
-2103 -2125 0
-2103 -2126 0
-2103 -2127 0
-2103 -2128 0
-2103 -2129 0
-2103 -2130 0
-2103 -2131 0
-2103 -2132 0
-2103 -2133 0
-2103 -2134 0
-2103 -2135 0
-2103 -2136 0
-2103 -2137 0
-2103 -2138 0
-2103 -2139 0
-2103 -2140 0
-2103 -2141 0
-2103 -2142 0
-2103 -2143 0
-2103 -2144 0
-2103 -2145 0
-2103 -2146 0
-2104 -2105 0
-2104 -2106 0
-2104 -2107 0
-2104 -2108 0
-2104 -2109 0
-2104 -2110 0
-2104 -2111 0
-2104 -2112 0
-2104 -2113 0
-2104 -2114 0
-2104 -2115 0
-2104 -2116 0
-2104 -2117 0
-2104 -2118 0
-2104 -2119 0
-2104 -2120 0
-2104 -2121 0
-2104 -2122 0
-2104 -2123 0
-2104 -2124 0
-2104 -2125 0
-2104 -2126 0
-2104 -2127 0
-2104 -2128 0
-2104 -2129 0
-2104 -2130 0
-2104 -2131 0
-2104 -2132 0
-2104 -2133 0
-2104 -2134 0
-2104 -2135 0
-2104 -2136 0
-2104 -2137 0
-2104 -2138 0
-2104 -2139 0
-2104 -2140 0
-2104 -2141 0
-2104 -2142 0
-2104 -2143 0
-2104 -2144 0
-2104 -2145 0
-2104 -2146 0
-2105 -2106 0
-2105 -2107 0
-2105 -2108 0
-2105 -2109 0
-2105 -2110 0
-2105 -2111 0
-2105 -2112 0
-2105 -2113 0
-2105 -2114 0
-2105 -2115 0
-2105 -2116 0
-2105 -2117 0
-2105 -2118 0
-2105 -2119 0
-2105 -2120 0
-2105 -2121 0
-2105 -2122 0
-2105 -2123 0
-2105 -2124 0
-2105 -2125 0
-2105 -2126 0
-2105 -2127 0
-2105 -2128 0
-2105 -2129 0
-2105 -2130 0
-2105 -2131 0
-2105 -2132 0
-2105 -2133 0
-2105 -2134 0
-2105 -2135 0
-2105 -2136 0
-2105 -2137 0
-2105 -2138 0
-2105 -2139 0
-2105 -2140 0
-2105 -2141 0
-2105 -2142 0
-2105 -2143 0
-2105 -2144 0
-2105 -2145 0
-2105 -2146 0
-2106 -2107 0
-2106 -2108 0
-2106 -2109 0
-2106 -2110 0
-2106 -2111 0
-2106 -2112 0
-2106 -2113 0
-2106 -2114 0
-2106 -2115 0
-2106 -2116 0
-2106 -2117 0
-2106 -2118 0
-2106 -2119 0
-2106 -2120 0
-2106 -2121 0
-2106 -2122 0
-2106 -2123 0
-2106 -2124 0
-2106 -2125 0
-2106 -2126 0
-2106 -2127 0
-2106 -2128 0
-2106 -2129 0
-2106 -2130 0
-2106 -2131 0
-2106 -2132 0
-2106 -2133 0
-2106 -2134 0
-2106 -2135 0
-2106 -2136 0
-2106 -2137 0
-2106 -2138 0
-2106 -2139 0
-2106 -2140 0
-2106 -2141 0
-2106 -2142 0
-2106 -2143 0
-2106 -2144 0
-2106 -2145 0
-2106 -2146 0
-2107 -2108 0
-2107 -2109 0
-2107 -2110 0
-2107 -2111 0
-2107 -2112 0
-2107 -2113 0
-2107 -2114 0
-2107 -2115 0
-2107 -2116 0
-2107 -2117 0
-2107 -2118 0
-2107 -2119 0
-2107 -2120 0
-2107 -2121 0
-2107 -2122 0
-2107 -2123 0
-2107 -2124 0
-2107 -2125 0
-2107 -2126 0
-2107 -2127 0
-2107 -2128 0
-2107 -2129 0
-2107 -2130 0
-2107 -2131 0
-2107 -2132 0
-2107 -2133 0
-2107 -2134 0
-2107 -2135 0
-2107 -2136 0
-2107 -2137 0
-2107 -2138 0
-2107 -2139 0
-2107 -2140 0
-2107 -2141 0
-2107 -2142 0
-2107 -2143 0
-2107 -2144 0
-2107 -2145 0
-2107 -2146 0
-2108 -2109 0
-2108 -2110 0
-2108 -2111 0
-2108 -2112 0
-2108 -2113 0
-2108 -2114 0
-2108 -2115 0
-2108 -2116 0
-2108 -2117 0
-2108 -2118 0
-2108 -2119 0
-2108 -2120 0
-2108 -2121 0
-2108 -2122 0
-2108 -2123 0
-2108 -2124 0
-2108 -2125 0
-2108 -2126 0
-2108 -2127 0
-2108 -2128 0
-2108 -2129 0
-2108 -2130 0
-2108 -2131 0
-2108 -2132 0
-2108 -2133 0
-2108 -2134 0
-2108 -2135 0
-2108 -2136 0
-2108 -2137 0
-2108 -2138 0
-2108 -2139 0
-2108 -2140 0
-2108 -2141 0
-2108 -2142 0
-2108 -2143 0
-2108 -2144 0
-2108 -2145 0
-2108 -2146 0
-2109 -2110 0
-2109 -2111 0
-2109 -2112 0
-2109 -2113 0
-2109 -2114 0
-2109 -2115 0
-2109 -2116 0
-2109 -2117 0
-2109 -2118 0
-2109 -2119 0
-2109 -2120 0
-2109 -2121 0
-2109 -2122 0
-2109 -2123 0
-2109 -2124 0
-2109 -2125 0
-2109 -2126 0
-2109 -2127 0
-2109 -2128 0
-2109 -2129 0
-2109 -2130 0
-2109 -2131 0
-2109 -2132 0
-2109 -2133 0
-2109 -2134 0
-2109 -2135 0
-2109 -2136 0
-2109 -2137 0
-2109 -2138 0
-2109 -2139 0
-2109 -2140 0
-2109 -2141 0
-2109 -2142 0
-2109 -2143 0
-2109 -2144 0
-2109 -2145 0
-2109 -2146 0
-2110 -2111 0
-2110 -2112 0
-2110 -2113 0
-2110 -2114 0
-2110 -2115 0
-2110 -2116 0
-2110 -2117 0
-2110 -2118 0
-2110 -2119 0
-2110 -2120 0
-2110 -2121 0
-2110 -2122 0
-2110 -2123 0
-2110 -2124 0
-2110 -2125 0
-2110 -2126 0
-2110 -2127 0
-2110 -2128 0
-2110 -2129 0
-2110 -2130 0
-2110 -2131 0
-2110 -2132 0
-2110 -2133 0
-2110 -2134 0
-2110 -2135 0
-2110 -2136 0
-2110 -2137 0
-2110 -2138 0
-2110 -2139 0
-2110 -2140 0
-2110 -2141 0
-2110 -2142 0
-2110 -2143 0
-2110 -2144 0
-2110 -2145 0
-2110 -2146 0
-2111 -2112 0
-2111 -2113 0
-2111 -2114 0
-2111 -2115 0
-2111 -2116 0
-2111 -2117 0
-2111 -2118 0
-2111 -2119 0
-2111 -2120 0
-2111 -2121 0
-2111 -2122 0
-2111 -2123 0
-2111 -2124 0
-2111 -2125 0
-2111 -2126 0
-2111 -2127 0
-2111 -2128 0
-2111 -2129 0
-2111 -2130 0
-2111 -2131 0
-2111 -2132 0
-2111 -2133 0
-2111 -2134 0
-2111 -2135 0
-2111 -2136 0
-2111 -2137 0
-2111 -2138 0
-2111 -2139 0
-2111 -2140 0
-2111 -2141 0
-2111 -2142 0
-2111 -2143 0
-2111 -2144 0
-2111 -2145 0
-2111 -2146 0
-2112 -2113 0
-2112 -2114 0
-2112 -2115 0
-2112 -2116 0
-2112 -2117 0
-2112 -2118 0
-2112 -2119 0
-2112 -2120 0
-2112 -2121 0
-2112 -2122 0
-2112 -2123 0
-2112 -2124 0
-2112 -2125 0
-2112 -2126 0
-2112 -2127 0
-2112 -2128 0
-2112 -2129 0
-2112 -2130 0
-2112 -2131 0
-2112 -2132 0
-2112 -2133 0
-2112 -2134 0
-2112 -2135 0
-2112 -2136 0
-2112 -2137 0
-2112 -2138 0
-2112 -2139 0
-2112 -2140 0
-2112 -2141 0
-2112 -2142 0
-2112 -2143 0
-2112 -2144 0
-2112 -2145 0
-2112 -2146 0
-2113 -2114 0
-2113 -2115 0
-2113 -2116 0
-2113 -2117 0
-2113 -2118 0
-2113 -2119 0
-2113 -2120 0
-2113 -2121 0
-2113 -2122 0
-2113 -2123 0
-2113 -2124 0
-2113 -2125 0
-2113 -2126 0
-2113 -2127 0
-2113 -2128 0
-2113 -2129 0
-2113 -2130 0
-2113 -2131 0
-2113 -2132 0
-2113 -2133 0
-2113 -2134 0
-2113 -2135 0
-2113 -2136 0
-2113 -2137 0
-2113 -2138 0
-2113 -2139 0
-2113 -2140 0
-2113 -2141 0
-2113 -2142 0
-2113 -2143 0
-2113 -2144 0
-2113 -2145 0
-2113 -2146 0
-2114 -2115 0
-2114 -2116 0
-2114 -2117 0
-2114 -2118 0
-2114 -2119 0
-2114 -2120 0
-2114 -2121 0
-2114 -2122 0
-2114 -2123 0
-2114 -2124 0
-2114 -2125 0
-2114 -2126 0
-2114 -2127 0
-2114 -2128 0
-2114 -2129 0
-2114 -2130 0
-2114 -2131 0
-2114 -2132 0
-2114 -2133 0
-2114 -2134 0
-2114 -2135 0
-2114 -2136 0
-2114 -2137 0
-2114 -2138 0
-2114 -2139 0
-2114 -2140 0
-2114 -2141 0
-2114 -2142 0
-2114 -2143 0
-2114 -2144 0
-2114 -2145 0
-2114 -2146 0
-2115 -2116 0
-2115 -2117 0
-2115 -2118 0
-2115 -2119 0
-2115 -2120 0
-2115 -2121 0
-2115 -2122 0
-2115 -2123 0
-2115 -2124 0
-2115 -2125 0
-2115 -2126 0
-2115 -2127 0
-2115 -2128 0
-2115 -2129 0
-2115 -2130 0
-2115 -2131 0
-2115 -2132 0
-2115 -2133 0
-2115 -2134 0
-2115 -2135 0
-2115 -2136 0
-2115 -2137 0
-2115 -2138 0
-2115 -2139 0
-2115 -2140 0
-2115 -2141 0
-2115 -2142 0
-2115 -2143 0
-2115 -2144 0
-2115 -2145 0
-2115 -2146 0
-2116 -2117 0
-2116 -2118 0
-2116 -2119 0
-2116 -2120 0
-2116 -2121 0
-2116 -2122 0
-2116 -2123 0
-2116 -2124 0
-2116 -2125 0
-2116 -2126 0
-2116 -2127 0
-2116 -2128 0
-2116 -2129 0
-2116 -2130 0
-2116 -2131 0
-2116 -2132 0
-2116 -2133 0
-2116 -2134 0
-2116 -2135 0
-2116 -2136 0
-2116 -2137 0
-2116 -2138 0
-2116 -2139 0
-2116 -2140 0
-2116 -2141 0
-2116 -2142 0
-2116 -2143 0
-2116 -2144 0
-2116 -2145 0
-2116 -2146 0
-2117 -2118 0
-2117 -2119 0
-2117 -2120 0
-2117 -2121 0
-2117 -2122 0
-2117 -2123 0
-2117 -2124 0
-2117 -2125 0
-2117 -2126 0
-2117 -2127 0
-2117 -2128 0
-2117 -2129 0
-2117 -2130 0
-2117 -2131 0
-2117 -2132 0
-2117 -2133 0
-2117 -2134 0
-2117 -2135 0
-2117 -2136 0
-2117 -2137 0
-2117 -2138 0
-2117 -2139 0
-2117 -2140 0
-2117 -2141 0
-2117 -2142 0
-2117 -2143 0
-2117 -2144 0
-2117 -2145 0
-2117 -2146 0
-2118 -2119 0
-2118 -2120 0
-2118 -2121 0
-2118 -2122 0
-2118 -2123 0
-2118 -2124 0
-2118 -2125 0
-2118 -2126 0
-2118 -2127 0
-2118 -2128 0
-2118 -2129 0
-2118 -2130 0
-2118 -2131 0
-2118 -2132 0
-2118 -2133 0
-2118 -2134 0
-2118 -2135 0
-2118 -2136 0
-2118 -2137 0
-2118 -2138 0
-2118 -2139 0
-2118 -2140 0
-2118 -2141 0
-2118 -2142 0
-2118 -2143 0
-2118 -2144 0
-2118 -2145 0
-2118 -2146 0
-2119 -2120 0
-2119 -2121 0
-2119 -2122 0
-2119 -2123 0
-2119 -2124 0
-2119 -2125 0
-2119 -2126 0
-2119 -2127 0
-2119 -2128 0
-2119 -2129 0
-2119 -2130 0
-2119 -2131 0
-2119 -2132 0
-2119 -2133 0
-2119 -2134 0
-2119 -2135 0
-2119 -2136 0
-2119 -2137 0
-2119 -2138 0
-2119 -2139 0
-2119 -2140 0
-2119 -2141 0
-2119 -2142 0
-2119 -2143 0
-2119 -2144 0
-2119 -2145 0
-2119 -2146 0
-2120 -2121 0
-2120 -2122 0
-2120 -2123 0
-2120 -2124 0
-2120 -2125 0
-2120 -2126 0
-2120 -2127 0
-2120 -2128 0
-2120 -2129 0
-2120 -2130 0
-2120 -2131 0
-2120 -2132 0
-2120 -2133 0
-2120 -2134 0
-2120 -2135 0
-2120 -2136 0
-2120 -2137 0
-2120 -2138 0
-2120 -2139 0
-2120 -2140 0
-2120 -2141 0
-2120 -2142 0
-2120 -2143 0
-2120 -2144 0
-2120 -2145 0
-2120 -2146 0
-2121 -2122 0
-2121 -2123 0
-2121 -2124 0
-2121 -2125 0
-2121 -2126 0
-2121 -2127 0
-2121 -2128 0
-2121 -2129 0
-2121 -2130 0
-2121 -2131 0
-2121 -2132 0
-2121 -2133 0
-2121 -2134 0
-2121 -2135 0
-2121 -2136 0
-2121 -2137 0
-2121 -2138 0
-2121 -2139 0
-2121 -2140 0
-2121 -2141 0
-2121 -2142 0
-2121 -2143 0
-2121 -2144 0
-2121 -2145 0
-2121 -2146 0
-2122 -2123 0
-2122 -2124 0
-2122 -2125 0
-2122 -2126 0
-2122 -2127 0
-2122 -2128 0
-2122 -2129 0
-2122 -2130 0
-2122 -2131 0
-2122 -2132 0
-2122 -2133 0
-2122 -2134 0
-2122 -2135 0
-2122 -2136 0
-2122 -2137 0
-2122 -2138 0
-2122 -2139 0
-2122 -2140 0
-2122 -2141 0
-2122 -2142 0
-2122 -2143 0
-2122 -2144 0
-2122 -2145 0
-2122 -2146 0
-2123 -2124 0
-2123 -2125 0
-2123 -2126 0
-2123 -2127 0
-2123 -2128 0
-2123 -2129 0
-2123 -2130 0
-2123 -2131 0
-2123 -2132 0
-2123 -2133 0
-2123 -2134 0
-2123 -2135 0
-2123 -2136 0
-2123 -2137 0
-2123 -2138 0
-2123 -2139 0
-2123 -2140 0
-2123 -2141 0
-2123 -2142 0
-2123 -2143 0
-2123 -2144 0
-2123 -2145 0
-2123 -2146 0
-2124 -2125 0
-2124 -2126 0
-2124 -2127 0
-2124 -2128 0
-2124 -2129 0
-2124 -2130 0
-2124 -2131 0
-2124 -2132 0
-2124 -2133 0
-2124 -2134 0
-2124 -2135 0
-2124 -2136 0
-2124 -2137 0
-2124 -2138 0
-2124 -2139 0
-2124 -2140 0
-2124 -2141 0
-2124 -2142 0
-2124 -2143 0
-2124 -2144 0
-2124 -2145 0
-2124 -2146 0
-2125 -2126 0
-2125 -2127 0
-2125 -2128 0
-2125 -2129 0
-2125 -2130 0
-2125 -2131 0
-2125 -2132 0
-2125 -2133 0
-2125 -2134 0
-2125 -2135 0
-2125 -2136 0
-2125 -2137 0
-2125 -2138 0
-2125 -2139 0
-2125 -2140 0
-2125 -2141 0
-2125 -2142 0
-2125 -2143 0
-2125 -2144 0
-2125 -2145 0
-2125 -2146 0
-2126 -2127 0
-2126 -2128 0
-2126 -2129 0
-2126 -2130 0
-2126 -2131 0
-2126 -2132 0
-2126 -2133 0
-2126 -2134 0
-2126 -2135 0
-2126 -2136 0
-2126 -2137 0
-2126 -2138 0
-2126 -2139 0
-2126 -2140 0
-2126 -2141 0
-2126 -2142 0
-2126 -2143 0
-2126 -2144 0
-2126 -2145 0
-2126 -2146 0
-2127 -2128 0
-2127 -2129 0
-2127 -2130 0
-2127 -2131 0
-2127 -2132 0
-2127 -2133 0
-2127 -2134 0
-2127 -2135 0
-2127 -2136 0
-2127 -2137 0
-2127 -2138 0
-2127 -2139 0
-2127 -2140 0
-2127 -2141 0
-2127 -2142 0
-2127 -2143 0
-2127 -2144 0
-2127 -2145 0
-2127 -2146 0
-2128 -2129 0
-2128 -2130 0
-2128 -2131 0
-2128 -2132 0
-2128 -2133 0
-2128 -2134 0
-2128 -2135 0
-2128 -2136 0
-2128 -2137 0
-2128 -2138 0
-2128 -2139 0
-2128 -2140 0
-2128 -2141 0
-2128 -2142 0
-2128 -2143 0
-2128 -2144 0
-2128 -2145 0
-2128 -2146 0
-2129 -2130 0
-2129 -2131 0
-2129 -2132 0
-2129 -2133 0
-2129 -2134 0
-2129 -2135 0
-2129 -2136 0
-2129 -2137 0
-2129 -2138 0
-2129 -2139 0
-2129 -2140 0
-2129 -2141 0
-2129 -2142 0
-2129 -2143 0
-2129 -2144 0
-2129 -2145 0
-2129 -2146 0
-2130 -2131 0
-2130 -2132 0
-2130 -2133 0
-2130 -2134 0
-2130 -2135 0
-2130 -2136 0
-2130 -2137 0
-2130 -2138 0
-2130 -2139 0
-2130 -2140 0
-2130 -2141 0
-2130 -2142 0
-2130 -2143 0
-2130 -2144 0
-2130 -2145 0
-2130 -2146 0
-2131 -2132 0
-2131 -2133 0
-2131 -2134 0
-2131 -2135 0
-2131 -2136 0
-2131 -2137 0
-2131 -2138 0
-2131 -2139 0
-2131 -2140 0
-2131 -2141 0
-2131 -2142 0
-2131 -2143 0
-2131 -2144 0
-2131 -2145 0
-2131 -2146 0
-2132 -2133 0
-2132 -2134 0
-2132 -2135 0
-2132 -2136 0
-2132 -2137 0
-2132 -2138 0
-2132 -2139 0
-2132 -2140 0
-2132 -2141 0
-2132 -2142 0
-2132 -2143 0
-2132 -2144 0
-2132 -2145 0
-2132 -2146 0
-2133 -2134 0
-2133 -2135 0
-2133 -2136 0
-2133 -2137 0
-2133 -2138 0
-2133 -2139 0
-2133 -2140 0
-2133 -2141 0
-2133 -2142 0
-2133 -2143 0
-2133 -2144 0
-2133 -2145 0
-2133 -2146 0
-2134 -2135 0
-2134 -2136 0
-2134 -2137 0
-2134 -2138 0
-2134 -2139 0
-2134 -2140 0
-2134 -2141 0
-2134 -2142 0
-2134 -2143 0
-2134 -2144 0
-2134 -2145 0
-2134 -2146 0
-2135 -2136 0
-2135 -2137 0
-2135 -2138 0
-2135 -2139 0
-2135 -2140 0
-2135 -2141 0
-2135 -2142 0
-2135 -2143 0
-2135 -2144 0
-2135 -2145 0
-2135 -2146 0
-2136 -2137 0
-2136 -2138 0
-2136 -2139 0
-2136 -2140 0
-2136 -2141 0
-2136 -2142 0
-2136 -2143 0
-2136 -2144 0
-2136 -2145 0
-2136 -2146 0
-2137 -2138 0
-2137 -2139 0
-2137 -2140 0
-2137 -2141 0
-2137 -2142 0
-2137 -2143 0
-2137 -2144 0
-2137 -2145 0
-2137 -2146 0
-2138 -2139 0
-2138 -2140 0
-2138 -2141 0
-2138 -2142 0
-2138 -2143 0
-2138 -2144 0
-2138 -2145 0
-2138 -2146 0
-2139 -2140 0
-2139 -2141 0
-2139 -2142 0
-2139 -2143 0
-2139 -2144 0
-2139 -2145 0
-2139 -2146 0
-2140 -2141 0
-2140 -2142 0
-2140 -2143 0
-2140 -2144 0
-2140 -2145 0
-2140 -2146 0
-2141 -2142 0
-2141 -2143 0
-2141 -2144 0
-2141 -2145 0
-2141 -2146 0
-2142 -2143 0
-2142 -2144 0
-2142 -2145 0
-2142 -2146 0
-2143 -2144 0
-2143 -2145 0
-2143 -2146 0
-2144 -2145 0
-2144 -2146 0
-2145 -2146 0
-2022 66 2085 0
-2022 -66 2084 0
-2023 66 2086 0
-2023 -66 2085 0
-2024 66 2087 0
-2024 -66 2086 0
-2025 66 2088 0
-2025 -66 2087 0
-2026 66 2089 0
-2026 -66 2088 0
-2027 66 2090 0
-2027 -66 2089 0
-2028 66 2091 0
-2028 -66 2090 0
-2029 66 2092 0
-2029 -66 2091 0
-2030 66 2093 0
-2030 -66 2092 0
-2031 66 2094 0
-2031 -66 2093 0
-2032 66 2095 0
-2032 -66 2094 0
-2033 66 2096 0
-2033 -66 2095 0
-2034 66 2097 0
-2034 -66 2096 0
-2035 66 2098 0
-2035 -66 2097 0
-2036 66 2099 0
-2036 -66 2098 0
-2037 66 2100 0
-2037 -66 2099 0
-2038 66 2101 0
-2038 -66 2100 0
-2039 66 2102 0
-2039 -66 2101 0
-2040 66 2103 0
-2040 -66 2102 0
-2041 66 2104 0
-2041 -66 2103 0
-2042 66 2105 0
-2042 -66 2104 0
-2043 66 2106 0
-2043 -66 2105 0
-2044 66 2107 0
-2044 -66 2106 0
-2045 66 2108 0
-2045 -66 2107 0
-2046 66 2109 0
-2046 -66 2108 0
-2047 66 2110 0
-2047 -66 2109 0
-2048 66 2111 0
-2048 -66 2110 0
-2049 66 2112 0
-2049 -66 2111 0
-2050 66 2113 0
-2050 -66 2112 0
-2051 66 2114 0
-2051 -66 2113 0
-2052 66 2115 0
-2052 -66 2114 0
-2053 66 2116 0
-2053 -66 2115 0
-2054 66 2117 0
-2054 -66 2116 0
-2055 66 2118 0
-2055 -66 2117 0
-2056 66 2119 0
-2056 -66 2118 0
-2057 66 2120 0
-2057 -66 2119 0
-2058 66 2121 0
-2058 -66 2120 0
-2059 66 2122 0
-2059 -66 2121 0
-2060 66 2123 0
-2060 -66 2122 0
-2061 66 2124 0
-2061 -66 2123 0
-2062 66 2125 0
-2062 -66 2124 0
-2063 66 2126 0
-2063 -66 2125 0
-2064 66 2127 0
-2064 -66 2126 0
-2065 66 2128 0
-2065 -66 2127 0
-2066 66 2129 0
-2066 -66 2128 0
-2067 66 2130 0
-2067 -66 2129 0
-2068 66 2131 0
-2068 -66 2130 0
-2069 66 2132 0
-2069 -66 2131 0
-2070 66 2133 0
-2070 -66 2132 0
-2071 66 2134 0
-2071 -66 2133 0
-2072 66 2135 0
-2072 -66 2134 0
-2073 66 2136 0
-2073 -66 2135 0
-2074 66 2137 0
-2074 -66 2136 0
-2075 66 2138 0
-2075 -66 2137 0
-2076 66 2139 0
-2076 -66 2138 0
-2077 66 2140 0
-2077 -66 2139 0
-2078 66 2141 0
-2078 -66 2140 0
-2079 66 2142 0
-2079 -66 2141 0
-2080 66 2143 0
-2080 -66 2142 0
-2081 66 2144 0
-2081 -66 2143 0
-2082 66 2145 0
-2082 -66 2144 0
-2083 66 2146 0
-2083 -66 2145 0
2147 2148 2149 2150 2151 2152 2153 2154 2155 2156 2157 2158 2159 2160 2161 2162 2163 2164 2165 2166 2167 2168 2169 2170 2171 2172 2173 2174 2175 2176 2177 2178 2179 2180 2181 2182 2183 2184 2185 2186 2187 2188 2189 2190 2191 2192 2193 2194 2195 2196 2197 2198 2199 2200 2201 2202 2203 2204 2205 2206 2207 2208 2209 2210 0
-2147 -2148 0
-2147 -2149 0
-2147 -2150 0
-2147 -2151 0
-2147 -2152 0
-2147 -2153 0
-2147 -2154 0
-2147 -2155 0
-2147 -2156 0
-2147 -2157 0
-2147 -2158 0
-2147 -2159 0
-2147 -2160 0
-2147 -2161 0
-2147 -2162 0
-2147 -2163 0
-2147 -2164 0
-2147 -2165 0
-2147 -2166 0
-2147 -2167 0
-2147 -2168 0
-2147 -2169 0
-2147 -2170 0
-2147 -2171 0
-2147 -2172 0
-2147 -2173 0
-2147 -2174 0
-2147 -2175 0
-2147 -2176 0
-2147 -2177 0
-2147 -2178 0
-2147 -2179 0
-2147 -2180 0
-2147 -2181 0
-2147 -2182 0
-2147 -2183 0
-2147 -2184 0
-2147 -2185 0
-2147 -2186 0
-2147 -2187 0
-2147 -2188 0
-2147 -2189 0
-2147 -2190 0
-2147 -2191 0
-2147 -2192 0
-2147 -2193 0
-2147 -2194 0
-2147 -2195 0
-2147 -2196 0
-2147 -2197 0
-2147 -2198 0
-2147 -2199 0
-2147 -2200 0
-2147 -2201 0
-2147 -2202 0
-2147 -2203 0
-2147 -2204 0
-2147 -2205 0
-2147 -2206 0
-2147 -2207 0
-2147 -2208 0
-2147 -2209 0
-2147 -2210 0
-2148 -2149 0
-2148 -2150 0
-2148 -2151 0
-2148 -2152 0
-2148 -2153 0
-2148 -2154 0
-2148 -2155 0
-2148 -2156 0
-2148 -2157 0
-2148 -2158 0
-2148 -2159 0
-2148 -2160 0
-2148 -2161 0
-2148 -2162 0
-2148 -2163 0
-2148 -2164 0
-2148 -2165 0
-2148 -2166 0
-2148 -2167 0
-2148 -2168 0
-2148 -2169 0
-2148 -2170 0
-2148 -2171 0
-2148 -2172 0
-2148 -2173 0
-2148 -2174 0
-2148 -2175 0
-2148 -2176 0
-2148 -2177 0
-2148 -2178 0
-2148 -2179 0
-2148 -2180 0
-2148 -2181 0
-2148 -2182 0
-2148 -2183 0
-2148 -2184 0
-2148 -2185 0
-2148 -2186 0
-2148 -2187 0
-2148 -2188 0
-2148 -2189 0
-2148 -2190 0
-2148 -2191 0
-2148 -2192 0
-2148 -2193 0
-2148 -2194 0
-2148 -2195 0
-2148 -2196 0
-2148 -2197 0
-2148 -2198 0
-2148 -2199 0
-2148 -2200 0
-2148 -2201 0
-2148 -2202 0
-2148 -2203 0
-2148 -2204 0
-2148 -2205 0
-2148 -2206 0
-2148 -2207 0
-2148 -2208 0
-2148 -2209 0
-2148 -2210 0
-2149 -2150 0
-2149 -2151 0
-2149 -2152 0
-2149 -2153 0
-2149 -2154 0
-2149 -2155 0
-2149 -2156 0
-2149 -2157 0
-2149 -2158 0
-2149 -2159 0
-2149 -2160 0
-2149 -2161 0
-2149 -2162 0
-2149 -2163 0
-2149 -2164 0
-2149 -2165 0
-2149 -2166 0
-2149 -2167 0
-2149 -2168 0
-2149 -2169 0
-2149 -2170 0
-2149 -2171 0
-2149 -2172 0
-2149 -2173 0
-2149 -2174 0
-2149 -2175 0
-2149 -2176 0
-2149 -2177 0
-2149 -2178 0
-2149 -2179 0
-2149 -2180 0
-2149 -2181 0
-2149 -2182 0
-2149 -2183 0
-2149 -2184 0
-2149 -2185 0
-2149 -2186 0
-2149 -2187 0
-2149 -2188 0
-2149 -2189 0
-2149 -2190 0
-2149 -2191 0
-2149 -2192 0
-2149 -2193 0
-2149 -2194 0
-2149 -2195 0
-2149 -2196 0
-2149 -2197 0
-2149 -2198 0
-2149 -2199 0
-2149 -2200 0
-2149 -2201 0
-2149 -2202 0
-2149 -2203 0
-2149 -2204 0
-2149 -2205 0
-2149 -2206 0
-2149 -2207 0
-2149 -2208 0
-2149 -2209 0
-2149 -2210 0
-2150 -2151 0
-2150 -2152 0
-2150 -2153 0
-2150 -2154 0
-2150 -2155 0
-2150 -2156 0
-2150 -2157 0
-2150 -2158 0
-2150 -2159 0
-2150 -2160 0
-2150 -2161 0
-2150 -2162 0
-2150 -2163 0
-2150 -2164 0
-2150 -2165 0
-2150 -2166 0
-2150 -2167 0
-2150 -2168 0
-2150 -2169 0
-2150 -2170 0
-2150 -2171 0
-2150 -2172 0
-2150 -2173 0
-2150 -2174 0
-2150 -2175 0
-2150 -2176 0
-2150 -2177 0
-2150 -2178 0
-2150 -2179 0
-2150 -2180 0
-2150 -2181 0
-2150 -2182 0
-2150 -2183 0
-2150 -2184 0
-2150 -2185 0
-2150 -2186 0
-2150 -2187 0
-2150 -2188 0
-2150 -2189 0
-2150 -2190 0
-2150 -2191 0
-2150 -2192 0
-2150 -2193 0
-2150 -2194 0
-2150 -2195 0
-2150 -2196 0
-2150 -2197 0
-2150 -2198 0
-2150 -2199 0
-2150 -2200 0
-2150 -2201 0
-2150 -2202 0
-2150 -2203 0
-2150 -2204 0
-2150 -2205 0
-2150 -2206 0
-2150 -2207 0
-2150 -2208 0
-2150 -2209 0
-2150 -2210 0
-2151 -2152 0
-2151 -2153 0
-2151 -2154 0
-2151 -2155 0
-2151 -2156 0
-2151 -2157 0
-2151 -2158 0
-2151 -2159 0
-2151 -2160 0
-2151 -2161 0
-2151 -2162 0
-2151 -2163 0
-2151 -2164 0
-2151 -2165 0
-2151 -2166 0
-2151 -2167 0
-2151 -2168 0
-2151 -2169 0
-2151 -2170 0
-2151 -2171 0
-2151 -2172 0
-2151 -2173 0
-2151 -2174 0
-2151 -2175 0
-2151 -2176 0
-2151 -2177 0
-2151 -2178 0
-2151 -2179 0
-2151 -2180 0
-2151 -2181 0
-2151 -2182 0
-2151 -2183 0
-2151 -2184 0
-2151 -2185 0
-2151 -2186 0
-2151 -2187 0
-2151 -2188 0
-2151 -2189 0
-2151 -2190 0
-2151 -2191 0
-2151 -2192 0
-2151 -2193 0
-2151 -2194 0
-2151 -2195 0
-2151 -2196 0
-2151 -2197 0
-2151 -2198 0
-2151 -2199 0
-2151 -2200 0
-2151 -2201 0
-2151 -2202 0
-2151 -2203 0
-2151 -2204 0
-2151 -2205 0
-2151 -2206 0
-2151 -2207 0
-2151 -2208 0
-2151 -2209 0
-2151 -2210 0
-2152 -2153 0
-2152 -2154 0
-2152 -2155 0
-2152 -2156 0
-2152 -2157 0
-2152 -2158 0
-2152 -2159 0
-2152 -2160 0
-2152 -2161 0
-2152 -2162 0
-2152 -2163 0
-2152 -2164 0
-2152 -2165 0
-2152 -2166 0
-2152 -2167 0
-2152 -2168 0
-2152 -2169 0
-2152 -2170 0
-2152 -2171 0
-2152 -2172 0
-2152 -2173 0
-2152 -2174 0
-2152 -2175 0
-2152 -2176 0
-2152 -2177 0
-2152 -2178 0
-2152 -2179 0
-2152 -2180 0
-2152 -2181 0
-2152 -2182 0
-2152 -2183 0
-2152 -2184 0
-2152 -2185 0
-2152 -2186 0
-2152 -2187 0
-2152 -2188 0
-2152 -2189 0
-2152 -2190 0
-2152 -2191 0
-2152 -2192 0
-2152 -2193 0
-2152 -2194 0
-2152 -2195 0
-2152 -2196 0
-2152 -2197 0
-2152 -2198 0
-2152 -2199 0
-2152 -2200 0
-2152 -2201 0
-2152 -2202 0
-2152 -2203 0
-2152 -2204 0
-2152 -2205 0
-2152 -2206 0
-2152 -2207 0
-2152 -2208 0
-2152 -2209 0
-2152 -2210 0
-2153 -2154 0
-2153 -2155 0
-2153 -2156 0
-2153 -2157 0
-2153 -2158 0
-2153 -2159 0
-2153 -2160 0
-2153 -2161 0
-2153 -2162 0
-2153 -2163 0
-2153 -2164 0
-2153 -2165 0
-2153 -2166 0
-2153 -2167 0
-2153 -2168 0
-2153 -2169 0
-2153 -2170 0
-2153 -2171 0
-2153 -2172 0
-2153 -2173 0
-2153 -2174 0
-2153 -2175 0
-2153 -2176 0
-2153 -2177 0
-2153 -2178 0
-2153 -2179 0
-2153 -2180 0
-2153 -2181 0
-2153 -2182 0
-2153 -2183 0
-2153 -2184 0
-2153 -2185 0
-2153 -2186 0
-2153 -2187 0
-2153 -2188 0
-2153 -2189 0
-2153 -2190 0
-2153 -2191 0
-2153 -2192 0
-2153 -2193 0
-2153 -2194 0
-2153 -2195 0
-2153 -2196 0
-2153 -2197 0
-2153 -2198 0
-2153 -2199 0
-2153 -2200 0
-2153 -2201 0
-2153 -2202 0
-2153 -2203 0
-2153 -2204 0
-2153 -2205 0
-2153 -2206 0
-2153 -2207 0
-2153 -2208 0
-2153 -2209 0
-2153 -2210 0
-2154 -2155 0
-2154 -2156 0
-2154 -2157 0
-2154 -2158 0
-2154 -2159 0
-2154 -2160 0
-2154 -2161 0
-2154 -2162 0
-2154 -2163 0
-2154 -2164 0
-2154 -2165 0
-2154 -2166 0
-2154 -2167 0
-2154 -2168 0
-2154 -2169 0
-2154 -2170 0
-2154 -2171 0
-2154 -2172 0
-2154 -2173 0
-2154 -2174 0
-2154 -2175 0
-2154 -2176 0
-2154 -2177 0
-2154 -2178 0
-2154 -2179 0
-2154 -2180 0
-2154 -2181 0
-2154 -2182 0
-2154 -2183 0
-2154 -2184 0
-2154 -2185 0
-2154 -2186 0
-2154 -2187 0
-2154 -2188 0
-2154 -2189 0
-2154 -2190 0
-2154 -2191 0
-2154 -2192 0
-2154 -2193 0
-2154 -2194 0
-2154 -2195 0
-2154 -2196 0
-2154 -2197 0
-2154 -2198 0
-2154 -2199 0
-2154 -2200 0
-2154 -2201 0
-2154 -2202 0
-2154 -2203 0
-2154 -2204 0
-2154 -2205 0
-2154 -2206 0
-2154 -2207 0
-2154 -2208 0
-2154 -2209 0
-2154 -2210 0
-2155 -2156 0
-2155 -2157 0
-2155 -2158 0
-2155 -2159 0
-2155 -2160 0
-2155 -2161 0
-2155 -2162 0
-2155 -2163 0
-2155 -2164 0
-2155 -2165 0
-2155 -2166 0
-2155 -2167 0
-2155 -2168 0
-2155 -2169 0
-2155 -2170 0
-2155 -2171 0
-2155 -2172 0
-2155 -2173 0
-2155 -2174 0
-2155 -2175 0
-2155 -2176 0
-2155 -2177 0
-2155 -2178 0
-2155 -2179 0
-2155 -2180 0
-2155 -2181 0
-2155 -2182 0
-2155 -2183 0
-2155 -2184 0
-2155 -2185 0
-2155 -2186 0
-2155 -2187 0
-2155 -2188 0
-2155 -2189 0
-2155 -2190 0
-2155 -2191 0
-2155 -2192 0
-2155 -2193 0
-2155 -2194 0
-2155 -2195 0
-2155 -2196 0
-2155 -2197 0
-2155 -2198 0
-2155 -2199 0
-2155 -2200 0
-2155 -2201 0
-2155 -2202 0
-2155 -2203 0
-2155 -2204 0
-2155 -2205 0
-2155 -2206 0
-2155 -2207 0
-2155 -2208 0
-2155 -2209 0
-2155 -2210 0
-2156 -2157 0
-2156 -2158 0
-2156 -2159 0
-2156 -2160 0
-2156 -2161 0
-2156 -2162 0
-2156 -2163 0
-2156 -2164 0
-2156 -2165 0
-2156 -2166 0
-2156 -2167 0
-2156 -2168 0
-2156 -2169 0
-2156 -2170 0
-2156 -2171 0
-2156 -2172 0
-2156 -2173 0
-2156 -2174 0
-2156 -2175 0
-2156 -2176 0
-2156 -2177 0
-2156 -2178 0
-2156 -2179 0
-2156 -2180 0
-2156 -2181 0
-2156 -2182 0
-2156 -2183 0
-2156 -2184 0
-2156 -2185 0
-2156 -2186 0
-2156 -2187 0
-2156 -2188 0
-2156 -2189 0
-2156 -2190 0
-2156 -2191 0
-2156 -2192 0
-2156 -2193 0
-2156 -2194 0
-2156 -2195 0
-2156 -2196 0
-2156 -2197 0
-2156 -2198 0
-2156 -2199 0
-2156 -2200 0
-2156 -2201 0
-2156 -2202 0
-2156 -2203 0
-2156 -2204 0
-2156 -2205 0
-2156 -2206 0
-2156 -2207 0
-2156 -2208 0
-2156 -2209 0
-2156 -2210 0
-2157 -2158 0
-2157 -2159 0
-2157 -2160 0
-2157 -2161 0
-2157 -2162 0
-2157 -2163 0
-2157 -2164 0
-2157 -2165 0
-2157 -2166 0
-2157 -2167 0
-2157 -2168 0
-2157 -2169 0
-2157 -2170 0
-2157 -2171 0
-2157 -2172 0
-2157 -2173 0
-2157 -2174 0
-2157 -2175 0
-2157 -2176 0
-2157 -2177 0
-2157 -2178 0
-2157 -2179 0
-2157 -2180 0
-2157 -2181 0
-2157 -2182 0
-2157 -2183 0
-2157 -2184 0
-2157 -2185 0
-2157 -2186 0
-2157 -2187 0
-2157 -2188 0
-2157 -2189 0
-2157 -2190 0
-2157 -2191 0
-2157 -2192 0
-2157 -2193 0
-2157 -2194 0
-2157 -2195 0
-2157 -2196 0
-2157 -2197 0
-2157 -2198 0
-2157 -2199 0
-2157 -2200 0
-2157 -2201 0
-2157 -2202 0
-2157 -2203 0
-2157 -2204 0
-2157 -2205 0
-2157 -2206 0
-2157 -2207 0
-2157 -2208 0
-2157 -2209 0
-2157 -2210 0
-2158 -2159 0
-2158 -2160 0
-2158 -2161 0
-2158 -2162 0
-2158 -2163 0
-2158 -2164 0
-2158 -2165 0
-2158 -2166 0
-2158 -2167 0
-2158 -2168 0
-2158 -2169 0
-2158 -2170 0
-2158 -2171 0
-2158 -2172 0
-2158 -2173 0
-2158 -2174 0
-2158 -2175 0
-2158 -2176 0
-2158 -2177 0
-2158 -2178 0
-2158 -2179 0
-2158 -2180 0
-2158 -2181 0
-2158 -2182 0
-2158 -2183 0
-2158 -2184 0
-2158 -2185 0
-2158 -2186 0
-2158 -2187 0
-2158 -2188 0
-2158 -2189 0
-2158 -2190 0
-2158 -2191 0
-2158 -2192 0
-2158 -2193 0
-2158 -2194 0
-2158 -2195 0
-2158 -2196 0
-2158 -2197 0
-2158 -2198 0
-2158 -2199 0
-2158 -2200 0
-2158 -2201 0
-2158 -2202 0
-2158 -2203 0
-2158 -2204 0
-2158 -2205 0
-2158 -2206 0
-2158 -2207 0
-2158 -2208 0
-2158 -2209 0
-2158 -2210 0
-2159 -2160 0
-2159 -2161 0
-2159 -2162 0
-2159 -2163 0
-2159 -2164 0
-2159 -2165 0
-2159 -2166 0
-2159 -2167 0
-2159 -2168 0
-2159 -2169 0
-2159 -2170 0
-2159 -2171 0
-2159 -2172 0
-2159 -2173 0
-2159 -2174 0
-2159 -2175 0
-2159 -2176 0
-2159 -2177 0
-2159 -2178 0
-2159 -2179 0
-2159 -2180 0
-2159 -2181 0
-2159 -2182 0
-2159 -2183 0
-2159 -2184 0
-2159 -2185 0
-2159 -2186 0
-2159 -2187 0
-2159 -2188 0
-2159 -2189 0
-2159 -2190 0
-2159 -2191 0
-2159 -2192 0
-2159 -2193 0
-2159 -2194 0
-2159 -2195 0
-2159 -2196 0
-2159 -2197 0
-2159 -2198 0
-2159 -2199 0
-2159 -2200 0
-2159 -2201 0
-2159 -2202 0
-2159 -2203 0
-2159 -2204 0
-2159 -2205 0
-2159 -2206 0
-2159 -2207 0
-2159 -2208 0
-2159 -2209 0
-2159 -2210 0
-2160 -2161 0
-2160 -2162 0
-2160 -2163 0
-2160 -2164 0
-2160 -2165 0
-2160 -2166 0
-2160 -2167 0
-2160 -2168 0
-2160 -2169 0
-2160 -2170 0
-2160 -2171 0
-2160 -2172 0
-2160 -2173 0
-2160 -2174 0
-2160 -2175 0
-2160 -2176 0
-2160 -2177 0
-2160 -2178 0
-2160 -2179 0
-2160 -2180 0
-2160 -2181 0
-2160 -2182 0
-2160 -2183 0
-2160 -2184 0
-2160 -2185 0
-2160 -2186 0
-2160 -2187 0
-2160 -2188 0
-2160 -2189 0
-2160 -2190 0
-2160 -2191 0
-2160 -2192 0
-2160 -2193 0
-2160 -2194 0
-2160 -2195 0
-2160 -2196 0
-2160 -2197 0
-2160 -2198 0
-2160 -2199 0
-2160 -2200 0
-2160 -2201 0
-2160 -2202 0
-2160 -2203 0
-2160 -2204 0
-2160 -2205 0
-2160 -2206 0
-2160 -2207 0
-2160 -2208 0
-2160 -2209 0
-2160 -2210 0
-2161 -2162 0
-2161 -2163 0
-2161 -2164 0
-2161 -2165 0
-2161 -2166 0
-2161 -2167 0
-2161 -2168 0
-2161 -2169 0
-2161 -2170 0
-2161 -2171 0
-2161 -2172 0
-2161 -2173 0
-2161 -2174 0
-2161 -2175 0
-2161 -2176 0
-2161 -2177 0
-2161 -2178 0
-2161 -2179 0
-2161 -2180 0
-2161 -2181 0
-2161 -2182 0
-2161 -2183 0
-2161 -2184 0
-2161 -2185 0
-2161 -2186 0
-2161 -2187 0
-2161 -2188 0
-2161 -2189 0
-2161 -2190 0
-2161 -2191 0
-2161 -2192 0
-2161 -2193 0
-2161 -2194 0
-2161 -2195 0
-2161 -2196 0
-2161 -2197 0
-2161 -2198 0
-2161 -2199 0
-2161 -2200 0
-2161 -2201 0
-2161 -2202 0
-2161 -2203 0
-2161 -2204 0
-2161 -2205 0
-2161 -2206 0
-2161 -2207 0
-2161 -2208 0
-2161 -2209 0
-2161 -2210 0
-2162 -2163 0
-2162 -2164 0
-2162 -2165 0
-2162 -2166 0
-2162 -2167 0
-2162 -2168 0
-2162 -2169 0
-2162 -2170 0
-2162 -2171 0
-2162 -2172 0
-2162 -2173 0
-2162 -2174 0
-2162 -2175 0
-2162 -2176 0
-2162 -2177 0
-2162 -2178 0
-2162 -2179 0
-2162 -2180 0
-2162 -2181 0
-2162 -2182 0
-2162 -2183 0
-2162 -2184 0
-2162 -2185 0
-2162 -2186 0
-2162 -2187 0
-2162 -2188 0
-2162 -2189 0
-2162 -2190 0
-2162 -2191 0
-2162 -2192 0
-2162 -2193 0
-2162 -2194 0
-2162 -2195 0
-2162 -2196 0
-2162 -2197 0
-2162 -2198 0
-2162 -2199 0
-2162 -2200 0
-2162 -2201 0
-2162 -2202 0
-2162 -2203 0
-2162 -2204 0
-2162 -2205 0
-2162 -2206 0
-2162 -2207 0
-2162 -2208 0
-2162 -2209 0
-2162 -2210 0
-2163 -2164 0
-2163 -2165 0
-2163 -2166 0
-2163 -2167 0
-2163 -2168 0
-2163 -2169 0
-2163 -2170 0
-2163 -2171 0
-2163 -2172 0
-2163 -2173 0
-2163 -2174 0
-2163 -2175 0
-2163 -2176 0
-2163 -2177 0
-2163 -2178 0
-2163 -2179 0
-2163 -2180 0
-2163 -2181 0
-2163 -2182 0
-2163 -2183 0
-2163 -2184 0
-2163 -2185 0
-2163 -2186 0
-2163 -2187 0
-2163 -2188 0
-2163 -2189 0
-2163 -2190 0
-2163 -2191 0
-2163 -2192 0
-2163 -2193 0
-2163 -2194 0
-2163 -2195 0
-2163 -2196 0
-2163 -2197 0
-2163 -2198 0
-2163 -2199 0
-2163 -2200 0
-2163 -2201 0
-2163 -2202 0
-2163 -2203 0
-2163 -2204 0
-2163 -2205 0
-2163 -2206 0
-2163 -2207 0
-2163 -2208 0
-2163 -2209 0
-2163 -2210 0
-2164 -2165 0
-2164 -2166 0
-2164 -2167 0
-2164 -2168 0
-2164 -2169 0
-2164 -2170 0
-2164 -2171 0
-2164 -2172 0
-2164 -2173 0
-2164 -2174 0
-2164 -2175 0
-2164 -2176 0
-2164 -2177 0
-2164 -2178 0
-2164 -2179 0
-2164 -2180 0
-2164 -2181 0
-2164 -2182 0
-2164 -2183 0
-2164 -2184 0
-2164 -2185 0
-2164 -2186 0
-2164 -2187 0
-2164 -2188 0
-2164 -2189 0
-2164 -2190 0
-2164 -2191 0
-2164 -2192 0
-2164 -2193 0
-2164 -2194 0
-2164 -2195 0
-2164 -2196 0
-2164 -2197 0
-2164 -2198 0
-2164 -2199 0
-2164 -2200 0
-2164 -2201 0
-2164 -2202 0
-2164 -2203 0
-2164 -2204 0
-2164 -2205 0
-2164 -2206 0
-2164 -2207 0
-2164 -2208 0
-2164 -2209 0
-2164 -2210 0
-2165 -2166 0
-2165 -2167 0
-2165 -2168 0
-2165 -2169 0
-2165 -2170 0
-2165 -2171 0
-2165 -2172 0
-2165 -2173 0
-2165 -2174 0
-2165 -2175 0
-2165 -2176 0
-2165 -2177 0
-2165 -2178 0
-2165 -2179 0
-2165 -2180 0
-2165 -2181 0
-2165 -2182 0
-2165 -2183 0
-2165 -2184 0
-2165 -2185 0
-2165 -2186 0
-2165 -2187 0
-2165 -2188 0
-2165 -2189 0
-2165 -2190 0
-2165 -2191 0
-2165 -2192 0
-2165 -2193 0
-2165 -2194 0
-2165 -2195 0
-2165 -2196 0
-2165 -2197 0
-2165 -2198 0
-2165 -2199 0
-2165 -2200 0
-2165 -2201 0
-2165 -2202 0
-2165 -2203 0
-2165 -2204 0
-2165 -2205 0
-2165 -2206 0
-2165 -2207 0
-2165 -2208 0
-2165 -2209 0
-2165 -2210 0
-2166 -2167 0
-2166 -2168 0
-2166 -2169 0
-2166 -2170 0
-2166 -2171 0
-2166 -2172 0
-2166 -2173 0
-2166 -2174 0
-2166 -2175 0
-2166 -2176 0
-2166 -2177 0
-2166 -2178 0
-2166 -2179 0
-2166 -2180 0
-2166 -2181 0
-2166 -2182 0
-2166 -2183 0
-2166 -2184 0
-2166 -2185 0
-2166 -2186 0
-2166 -2187 0
-2166 -2188 0
-2166 -2189 0
-2166 -2190 0
-2166 -2191 0
-2166 -2192 0
-2166 -2193 0
-2166 -2194 0
-2166 -2195 0
-2166 -2196 0
-2166 -2197 0
-2166 -2198 0
-2166 -2199 0
-2166 -2200 0
-2166 -2201 0
-2166 -2202 0
-2166 -2203 0
-2166 -2204 0
-2166 -2205 0
-2166 -2206 0
-2166 -2207 0
-2166 -2208 0
-2166 -2209 0
-2166 -2210 0
-2167 -2168 0
-2167 -2169 0
-2167 -2170 0
-2167 -2171 0
-2167 -2172 0
-2167 -2173 0
-2167 -2174 0
-2167 -2175 0
-2167 -2176 0
-2167 -2177 0
-2167 -2178 0
-2167 -2179 0
-2167 -2180 0
-2167 -2181 0
-2167 -2182 0
-2167 -2183 0
-2167 -2184 0
-2167 -2185 0
-2167 -2186 0
-2167 -2187 0
-2167 -2188 0
-2167 -2189 0
-2167 -2190 0
-2167 -2191 0
-2167 -2192 0
-2167 -2193 0
-2167 -2194 0
-2167 -2195 0
-2167 -2196 0
-2167 -2197 0
-2167 -2198 0
-2167 -2199 0
-2167 -2200 0
-2167 -2201 0
-2167 -2202 0
-2167 -2203 0
-2167 -2204 0
-2167 -2205 0
-2167 -2206 0
-2167 -2207 0
-2167 -2208 0
-2167 -2209 0
-2167 -2210 0
-2168 -2169 0
-2168 -2170 0
-2168 -2171 0
-2168 -2172 0
-2168 -2173 0
-2168 -2174 0
-2168 -2175 0
-2168 -2176 0
-2168 -2177 0
-2168 -2178 0
-2168 -2179 0
-2168 -2180 0
-2168 -2181 0
-2168 -2182 0
-2168 -2183 0
-2168 -2184 0
-2168 -2185 0
-2168 -2186 0
-2168 -2187 0
-2168 -2188 0
-2168 -2189 0
-2168 -2190 0
-2168 -2191 0
-2168 -2192 0
-2168 -2193 0
-2168 -2194 0
-2168 -2195 0
-2168 -2196 0
-2168 -2197 0
-2168 -2198 0
-2168 -2199 0
-2168 -2200 0
-2168 -2201 0
-2168 -2202 0
-2168 -2203 0
-2168 -2204 0
-2168 -2205 0
-2168 -2206 0
-2168 -2207 0
-2168 -2208 0
-2168 -2209 0
-2168 -2210 0
-2169 -2170 0
-2169 -2171 0
-2169 -2172 0
-2169 -2173 0
-2169 -2174 0
-2169 -2175 0
-2169 -2176 0
-2169 -2177 0
-2169 -2178 0
-2169 -2179 0
-2169 -2180 0
-2169 -2181 0
-2169 -2182 0
-2169 -2183 0
-2169 -2184 0
-2169 -2185 0
-2169 -2186 0
-2169 -2187 0
-2169 -2188 0
-2169 -2189 0
-2169 -2190 0
-2169 -2191 0
-2169 -2192 0
-2169 -2193 0
-2169 -2194 0
-2169 -2195 0
-2169 -2196 0
-2169 -2197 0
-2169 -2198 0
-2169 -2199 0
-2169 -2200 0
-2169 -2201 0
-2169 -2202 0
-2169 -2203 0
-2169 -2204 0
-2169 -2205 0
-2169 -2206 0
-2169 -2207 0
-2169 -2208 0
-2169 -2209 0
-2169 -2210 0
-2170 -2171 0
-2170 -2172 0
-2170 -2173 0
-2170 -2174 0
-2170 -2175 0
-2170 -2176 0
-2170 -2177 0
-2170 -2178 0
-2170 -2179 0
-2170 -2180 0
-2170 -2181 0
-2170 -2182 0
-2170 -2183 0
-2170 -2184 0
-2170 -2185 0
-2170 -2186 0
-2170 -2187 0
-2170 -2188 0
-2170 -2189 0
-2170 -2190 0
-2170 -2191 0
-2170 -2192 0
-2170 -2193 0
-2170 -2194 0
-2170 -2195 0
-2170 -2196 0
-2170 -2197 0
-2170 -2198 0
-2170 -2199 0
-2170 -2200 0
-2170 -2201 0
-2170 -2202 0
-2170 -2203 0
-2170 -2204 0
-2170 -2205 0
-2170 -2206 0
-2170 -2207 0
-2170 -2208 0
-2170 -2209 0
-2170 -2210 0
-2171 -2172 0
-2171 -2173 0
-2171 -2174 0
-2171 -2175 0
-2171 -2176 0
-2171 -2177 0
-2171 -2178 0
-2171 -2179 0
-2171 -2180 0
-2171 -2181 0
-2171 -2182 0
-2171 -2183 0
-2171 -2184 0
-2171 -2185 0
-2171 -2186 0
-2171 -2187 0
-2171 -2188 0
-2171 -2189 0
-2171 -2190 0
-2171 -2191 0
-2171 -2192 0
-2171 -2193 0
-2171 -2194 0
-2171 -2195 0
-2171 -2196 0
-2171 -2197 0
-2171 -2198 0
-2171 -2199 0
-2171 -2200 0
-2171 -2201 0
-2171 -2202 0
-2171 -2203 0
-2171 -2204 0
-2171 -2205 0
-2171 -2206 0
-2171 -2207 0
-2171 -2208 0
-2171 -2209 0
-2171 -2210 0
-2172 -2173 0
-2172 -2174 0
-2172 -2175 0
-2172 -2176 0
-2172 -2177 0
-2172 -2178 0
-2172 -2179 0
-2172 -2180 0
-2172 -2181 0
-2172 -2182 0
-2172 -2183 0
-2172 -2184 0
-2172 -2185 0
-2172 -2186 0
-2172 -2187 0
-2172 -2188 0
-2172 -2189 0
-2172 -2190 0
-2172 -2191 0
-2172 -2192 0
-2172 -2193 0
-2172 -2194 0
-2172 -2195 0
-2172 -2196 0
-2172 -2197 0
-2172 -2198 0
-2172 -2199 0
-2172 -2200 0
-2172 -2201 0
-2172 -2202 0
-2172 -2203 0
-2172 -2204 0
-2172 -2205 0
-2172 -2206 0
-2172 -2207 0
-2172 -2208 0
-2172 -2209 0
-2172 -2210 0
-2173 -2174 0
-2173 -2175 0
-2173 -2176 0
-2173 -2177 0
-2173 -2178 0
-2173 -2179 0
-2173 -2180 0
-2173 -2181 0
-2173 -2182 0
-2173 -2183 0
-2173 -2184 0
-2173 -2185 0
-2173 -2186 0
-2173 -2187 0
-2173 -2188 0
-2173 -2189 0
-2173 -2190 0
-2173 -2191 0
-2173 -2192 0
-2173 -2193 0
-2173 -2194 0
-2173 -2195 0
-2173 -2196 0
-2173 -2197 0
-2173 -2198 0
-2173 -2199 0
-2173 -2200 0
-2173 -2201 0
-2173 -2202 0
-2173 -2203 0
-2173 -2204 0
-2173 -2205 0
-2173 -2206 0
-2173 -2207 0
-2173 -2208 0
-2173 -2209 0
-2173 -2210 0
-2174 -2175 0
-2174 -2176 0
-2174 -2177 0
-2174 -2178 0
-2174 -2179 0
-2174 -2180 0
-2174 -2181 0
-2174 -2182 0
-2174 -2183 0
-2174 -2184 0
-2174 -2185 0
-2174 -2186 0
-2174 -2187 0
-2174 -2188 0
-2174 -2189 0
-2174 -2190 0
-2174 -2191 0
-2174 -2192 0
-2174 -2193 0
-2174 -2194 0
-2174 -2195 0
-2174 -2196 0
-2174 -2197 0
-2174 -2198 0
-2174 -2199 0
-2174 -2200 0
-2174 -2201 0
-2174 -2202 0
-2174 -2203 0
-2174 -2204 0
-2174 -2205 0
-2174 -2206 0
-2174 -2207 0
-2174 -2208 0
-2174 -2209 0
-2174 -2210 0
-2175 -2176 0
-2175 -2177 0
-2175 -2178 0
-2175 -2179 0
-2175 -2180 0
-2175 -2181 0
-2175 -2182 0
-2175 -2183 0
-2175 -2184 0
-2175 -2185 0
-2175 -2186 0
-2175 -2187 0
-2175 -2188 0
-2175 -2189 0
-2175 -2190 0
-2175 -2191 0
-2175 -2192 0
-2175 -2193 0
-2175 -2194 0
-2175 -2195 0
-2175 -2196 0
-2175 -2197 0
-2175 -2198 0
-2175 -2199 0
-2175 -2200 0
-2175 -2201 0
-2175 -2202 0
-2175 -2203 0
-2175 -2204 0
-2175 -2205 0
-2175 -2206 0
-2175 -2207 0
-2175 -2208 0
-2175 -2209 0
-2175 -2210 0
-2176 -2177 0
-2176 -2178 0
-2176 -2179 0
-2176 -2180 0
-2176 -2181 0
-2176 -2182 0
-2176 -2183 0
-2176 -2184 0
-2176 -2185 0
-2176 -2186 0
-2176 -2187 0
-2176 -2188 0
-2176 -2189 0
-2176 -2190 0
-2176 -2191 0
-2176 -2192 0
-2176 -2193 0
-2176 -2194 0
-2176 -2195 0
-2176 -2196 0
-2176 -2197 0
-2176 -2198 0
-2176 -2199 0
-2176 -2200 0
-2176 -2201 0
-2176 -2202 0
-2176 -2203 0
-2176 -2204 0
-2176 -2205 0
-2176 -2206 0
-2176 -2207 0
-2176 -2208 0
-2176 -2209 0
-2176 -2210 0
-2177 -2178 0
-2177 -2179 0
-2177 -2180 0
-2177 -2181 0
-2177 -2182 0
-2177 -2183 0
-2177 -2184 0
-2177 -2185 0
-2177 -2186 0
-2177 -2187 0
-2177 -2188 0
-2177 -2189 0
-2177 -2190 0
-2177 -2191 0
-2177 -2192 0
-2177 -2193 0
-2177 -2194 0
-2177 -2195 0
-2177 -2196 0
-2177 -2197 0
-2177 -2198 0
-2177 -2199 0
-2177 -2200 0
-2177 -2201 0
-2177 -2202 0
-2177 -2203 0
-2177 -2204 0
-2177 -2205 0
-2177 -2206 0
-2177 -2207 0
-2177 -2208 0
-2177 -2209 0
-2177 -2210 0
-2178 -2179 0
-2178 -2180 0
-2178 -2181 0
-2178 -2182 0
-2178 -2183 0
-2178 -2184 0
-2178 -2185 0
-2178 -2186 0
-2178 -2187 0
-2178 -2188 0
-2178 -2189 0
-2178 -2190 0
-2178 -2191 0
-2178 -2192 0
-2178 -2193 0
-2178 -2194 0
-2178 -2195 0
-2178 -2196 0
-2178 -2197 0
-2178 -2198 0
-2178 -2199 0
-2178 -2200 0
-2178 -2201 0
-2178 -2202 0
-2178 -2203 0
-2178 -2204 0
-2178 -2205 0
-2178 -2206 0
-2178 -2207 0
-2178 -2208 0
-2178 -2209 0
-2178 -2210 0
-2179 -2180 0
-2179 -2181 0
-2179 -2182 0
-2179 -2183 0
-2179 -2184 0
-2179 -2185 0
-2179 -2186 0
-2179 -2187 0
-2179 -2188 0
-2179 -2189 0
-2179 -2190 0
-2179 -2191 0
-2179 -2192 0
-2179 -2193 0
-2179 -2194 0
-2179 -2195 0
-2179 -2196 0
-2179 -2197 0
-2179 -2198 0
-2179 -2199 0
-2179 -2200 0
-2179 -2201 0
-2179 -2202 0
-2179 -2203 0
-2179 -2204 0
-2179 -2205 0
-2179 -2206 0
-2179 -2207 0
-2179 -2208 0
-2179 -2209 0
-2179 -2210 0
-2180 -2181 0
-2180 -2182 0
-2180 -2183 0
-2180 -2184 0
-2180 -2185 0
-2180 -2186 0
-2180 -2187 0
-2180 -2188 0
-2180 -2189 0
-2180 -2190 0
-2180 -2191 0
-2180 -2192 0
-2180 -2193 0
-2180 -2194 0
-2180 -2195 0
-2180 -2196 0
-2180 -2197 0
-2180 -2198 0
-2180 -2199 0
-2180 -2200 0
-2180 -2201 0
-2180 -2202 0
-2180 -2203 0
-2180 -2204 0
-2180 -2205 0
-2180 -2206 0
-2180 -2207 0
-2180 -2208 0
-2180 -2209 0
-2180 -2210 0
-2181 -2182 0
-2181 -2183 0
-2181 -2184 0
-2181 -2185 0
-2181 -2186 0
-2181 -2187 0
-2181 -2188 0
-2181 -2189 0
-2181 -2190 0
-2181 -2191 0
-2181 -2192 0
-2181 -2193 0
-2181 -2194 0
-2181 -2195 0
-2181 -2196 0
-2181 -2197 0
-2181 -2198 0
-2181 -2199 0
-2181 -2200 0
-2181 -2201 0
-2181 -2202 0
-2181 -2203 0
-2181 -2204 0
-2181 -2205 0
-2181 -2206 0
-2181 -2207 0
-2181 -2208 0
-2181 -2209 0
-2181 -2210 0
-2182 -2183 0
-2182 -2184 0
-2182 -2185 0
-2182 -2186 0
-2182 -2187 0
-2182 -2188 0
-2182 -2189 0
-2182 -2190 0
-2182 -2191 0
-2182 -2192 0
-2182 -2193 0
-2182 -2194 0
-2182 -2195 0
-2182 -2196 0
-2182 -2197 0
-2182 -2198 0
-2182 -2199 0
-2182 -2200 0
-2182 -2201 0
-2182 -2202 0
-2182 -2203 0
-2182 -2204 0
-2182 -2205 0
-2182 -2206 0
-2182 -2207 0
-2182 -2208 0
-2182 -2209 0
-2182 -2210 0
-2183 -2184 0
-2183 -2185 0
-2183 -2186 0
-2183 -2187 0
-2183 -2188 0
-2183 -2189 0
-2183 -2190 0
-2183 -2191 0
-2183 -2192 0
-2183 -2193 0
-2183 -2194 0
-2183 -2195 0
-2183 -2196 0
-2183 -2197 0
-2183 -2198 0
-2183 -2199 0
-2183 -2200 0
-2183 -2201 0
-2183 -2202 0
-2183 -2203 0
-2183 -2204 0
-2183 -2205 0
-2183 -2206 0
-2183 -2207 0
-2183 -2208 0
-2183 -2209 0
-2183 -2210 0
-2184 -2185 0
-2184 -2186 0
-2184 -2187 0
-2184 -2188 0
-2184 -2189 0
-2184 -2190 0
-2184 -2191 0
-2184 -2192 0
-2184 -2193 0
-2184 -2194 0
-2184 -2195 0
-2184 -2196 0
-2184 -2197 0
-2184 -2198 0
-2184 -2199 0
-2184 -2200 0
-2184 -2201 0
-2184 -2202 0
-2184 -2203 0
-2184 -2204 0
-2184 -2205 0
-2184 -2206 0
-2184 -2207 0
-2184 -2208 0
-2184 -2209 0
-2184 -2210 0
-2185 -2186 0
-2185 -2187 0
-2185 -2188 0
-2185 -2189 0
-2185 -2190 0
-2185 -2191 0
-2185 -2192 0
-2185 -2193 0
-2185 -2194 0
-2185 -2195 0
-2185 -2196 0
-2185 -2197 0
-2185 -2198 0
-2185 -2199 0
-2185 -2200 0
-2185 -2201 0
-2185 -2202 0
-2185 -2203 0
-2185 -2204 0
-2185 -2205 0
-2185 -2206 0
-2185 -2207 0
-2185 -2208 0
-2185 -2209 0
-2185 -2210 0
-2186 -2187 0
-2186 -2188 0
-2186 -2189 0
-2186 -2190 0
-2186 -2191 0
-2186 -2192 0
-2186 -2193 0
-2186 -2194 0
-2186 -2195 0
-2186 -2196 0
-2186 -2197 0
-2186 -2198 0
-2186 -2199 0
-2186 -2200 0
-2186 -2201 0
-2186 -2202 0
-2186 -2203 0
-2186 -2204 0
-2186 -2205 0
-2186 -2206 0
-2186 -2207 0
-2186 -2208 0
-2186 -2209 0
-2186 -2210 0
-2187 -2188 0
-2187 -2189 0
-2187 -2190 0
-2187 -2191 0
-2187 -2192 0
-2187 -2193 0
-2187 -2194 0
-2187 -2195 0
-2187 -2196 0
-2187 -2197 0
-2187 -2198 0
-2187 -2199 0
-2187 -2200 0
-2187 -2201 0
-2187 -2202 0
-2187 -2203 0
-2187 -2204 0
-2187 -2205 0
-2187 -2206 0
-2187 -2207 0
-2187 -2208 0
-2187 -2209 0
-2187 -2210 0
-2188 -2189 0
-2188 -2190 0
-2188 -2191 0
-2188 -2192 0
-2188 -2193 0
-2188 -2194 0
-2188 -2195 0
-2188 -2196 0
-2188 -2197 0
-2188 -2198 0
-2188 -2199 0
-2188 -2200 0
-2188 -2201 0
-2188 -2202 0
-2188 -2203 0
-2188 -2204 0
-2188 -2205 0
-2188 -2206 0
-2188 -2207 0
-2188 -2208 0
-2188 -2209 0
-2188 -2210 0
-2189 -2190 0
-2189 -2191 0
-2189 -2192 0
-2189 -2193 0
-2189 -2194 0
-2189 -2195 0
-2189 -2196 0
-2189 -2197 0
-2189 -2198 0
-2189 -2199 0
-2189 -2200 0
-2189 -2201 0
-2189 -2202 0
-2189 -2203 0
-2189 -2204 0
-2189 -2205 0
-2189 -2206 0
-2189 -2207 0
-2189 -2208 0
-2189 -2209 0
-2189 -2210 0
-2190 -2191 0
-2190 -2192 0
-2190 -2193 0
-2190 -2194 0
-2190 -2195 0
-2190 -2196 0
-2190 -2197 0
-2190 -2198 0
-2190 -2199 0
-2190 -2200 0
-2190 -2201 0
-2190 -2202 0
-2190 -2203 0
-2190 -2204 0
-2190 -2205 0
-2190 -2206 0
-2190 -2207 0
-2190 -2208 0
-2190 -2209 0
-2190 -2210 0
-2191 -2192 0
-2191 -2193 0
-2191 -2194 0
-2191 -2195 0
-2191 -2196 0
-2191 -2197 0
-2191 -2198 0
-2191 -2199 0
-2191 -2200 0
-2191 -2201 0
-2191 -2202 0
-2191 -2203 0
-2191 -2204 0
-2191 -2205 0
-2191 -2206 0
-2191 -2207 0
-2191 -2208 0
-2191 -2209 0
-2191 -2210 0
-2192 -2193 0
-2192 -2194 0
-2192 -2195 0
-2192 -2196 0
-2192 -2197 0
-2192 -2198 0
-2192 -2199 0
-2192 -2200 0
-2192 -2201 0
-2192 -2202 0
-2192 -2203 0
-2192 -2204 0
-2192 -2205 0
-2192 -2206 0
-2192 -2207 0
-2192 -2208 0
-2192 -2209 0
-2192 -2210 0
-2193 -2194 0
-2193 -2195 0
-2193 -2196 0
-2193 -2197 0
-2193 -2198 0
-2193 -2199 0
-2193 -2200 0
-2193 -2201 0
-2193 -2202 0
-2193 -2203 0
-2193 -2204 0
-2193 -2205 0
-2193 -2206 0
-2193 -2207 0
-2193 -2208 0
-2193 -2209 0
-2193 -2210 0
-2194 -2195 0
-2194 -2196 0
-2194 -2197 0
-2194 -2198 0
-2194 -2199 0
-2194 -2200 0
-2194 -2201 0
-2194 -2202 0
-2194 -2203 0
-2194 -2204 0
-2194 -2205 0
-2194 -2206 0
-2194 -2207 0
-2194 -2208 0
-2194 -2209 0
-2194 -2210 0
-2195 -2196 0
-2195 -2197 0
-2195 -2198 0
-2195 -2199 0
-2195 -2200 0
-2195 -2201 0
-2195 -2202 0
-2195 -2203 0
-2195 -2204 0
-2195 -2205 0
-2195 -2206 0
-2195 -2207 0
-2195 -2208 0
-2195 -2209 0
-2195 -2210 0
-2196 -2197 0
-2196 -2198 0
-2196 -2199 0
-2196 -2200 0
-2196 -2201 0
-2196 -2202 0
-2196 -2203 0
-2196 -2204 0
-2196 -2205 0
-2196 -2206 0
-2196 -2207 0
-2196 -2208 0
-2196 -2209 0
-2196 -2210 0
-2197 -2198 0
-2197 -2199 0
-2197 -2200 0
-2197 -2201 0
-2197 -2202 0
-2197 -2203 0
-2197 -2204 0
-2197 -2205 0
-2197 -2206 0
-2197 -2207 0
-2197 -2208 0
-2197 -2209 0
-2197 -2210 0
-2198 -2199 0
-2198 -2200 0
-2198 -2201 0
-2198 -2202 0
-2198 -2203 0
-2198 -2204 0
-2198 -2205 0
-2198 -2206 0
-2198 -2207 0
-2198 -2208 0
-2198 -2209 0
-2198 -2210 0
-2199 -2200 0
-2199 -2201 0
-2199 -2202 0
-2199 -2203 0
-2199 -2204 0
-2199 -2205 0
-2199 -2206 0
-2199 -2207 0
-2199 -2208 0
-2199 -2209 0
-2199 -2210 0
-2200 -2201 0
-2200 -2202 0
-2200 -2203 0
-2200 -2204 0
-2200 -2205 0
-2200 -2206 0
-2200 -2207 0
-2200 -2208 0
-2200 -2209 0
-2200 -2210 0
-2201 -2202 0
-2201 -2203 0
-2201 -2204 0
-2201 -2205 0
-2201 -2206 0
-2201 -2207 0
-2201 -2208 0
-2201 -2209 0
-2201 -2210 0
-2202 -2203 0
-2202 -2204 0
-2202 -2205 0
-2202 -2206 0
-2202 -2207 0
-2202 -2208 0
-2202 -2209 0
-2202 -2210 0
-2203 -2204 0
-2203 -2205 0
-2203 -2206 0
-2203 -2207 0
-2203 -2208 0
-2203 -2209 0
-2203 -2210 0
-2204 -2205 0
-2204 -2206 0
-2204 -2207 0
-2204 -2208 0
-2204 -2209 0
-2204 -2210 0
-2205 -2206 0
-2205 -2207 0
-2205 -2208 0
-2205 -2209 0
-2205 -2210 0
-2206 -2207 0
-2206 -2208 0
-2206 -2209 0
-2206 -2210 0
-2207 -2208 0
-2207 -2209 0
-2207 -2210 0
-2208 -2209 0
-2208 -2210 0
-2209 -2210 0
-2084 69 2148 0
-2084 -69 2147 0
-2085 69 2149 0
-2085 -69 2148 0
-2086 69 2150 0
-2086 -69 2149 0
-2087 69 2151 0
-2087 -69 2150 0
-2088 69 2152 0
-2088 -69 2151 0
-2089 69 2153 0
-2089 -69 2152 0
-2090 69 2154 0
-2090 -69 2153 0
-2091 69 2155 0
-2091 -69 2154 0
-2092 69 2156 0
-2092 -69 2155 0
-2093 69 2157 0
-2093 -69 2156 0
-2094 69 2158 0
-2094 -69 2157 0
-2095 69 2159 0
-2095 -69 2158 0
-2096 69 2160 0
-2096 -69 2159 0
-2097 69 2161 0
-2097 -69 2160 0
-2098 69 2162 0
-2098 -69 2161 0
-2099 69 2163 0
-2099 -69 2162 0
-2100 69 2164 0
-2100 -69 2163 0
-2101 69 2165 0
-2101 -69 2164 0
-2102 69 2166 0
-2102 -69 2165 0
-2103 69 2167 0
-2103 -69 2166 0
-2104 69 2168 0
-2104 -69 2167 0
-2105 69 2169 0
-2105 -69 2168 0
-2106 69 2170 0
-2106 -69 2169 0
-2107 69 2171 0
-2107 -69 2170 0
-2108 69 2172 0
-2108 -69 2171 0
-2109 69 2173 0
-2109 -69 2172 0
-2110 69 2174 0
-2110 -69 2173 0
-2111 69 2175 0
-2111 -69 2174 0
-2112 69 2176 0
-2112 -69 2175 0
-2113 69 2177 0
-2113 -69 2176 0
-2114 69 2178 0
-2114 -69 2177 0
-2115 69 2179 0
-2115 -69 2178 0
-2116 69 2180 0
-2116 -69 2179 0
-2117 69 2181 0
-2117 -69 2180 0
-2118 69 2182 0
-2118 -69 2181 0
-2119 69 2183 0
-2119 -69 2182 0
-2120 69 2184 0
-2120 -69 2183 0
-2121 69 2185 0
-2121 -69 2184 0
-2122 69 2186 0
-2122 -69 2185 0
-2123 69 2187 0
-2123 -69 2186 0
-2124 69 2188 0
-2124 -69 2187 0
-2125 69 2189 0
-2125 -69 2188 0
-2126 69 2190 0
-2126 -69 2189 0
-2127 69 2191 0
-2127 -69 2190 0
-2128 69 2192 0
-2128 -69 2191 0
-2129 69 2193 0
-2129 -69 2192 0
-2130 69 2194 0
-2130 -69 2193 0
-2131 69 2195 0
-2131 -69 2194 0
-2132 69 2196 0
-2132 -69 2195 0
-2133 69 2197 0
-2133 -69 2196 0
-2134 69 2198 0
-2134 -69 2197 0
-2135 69 2199 0
-2135 -69 2198 0
-2136 69 2200 0
-2136 -69 2199 0
-2137 69 2201 0
-2137 -69 2200 0
-2138 69 2202 0
-2138 -69 2201 0
-2139 69 2203 0
-2139 -69 2202 0
-2140 69 2204 0
-2140 -69 2203 0
-2141 69 2205 0
-2141 -69 2204 0
-2142 69 2206 0
-2142 -69 2205 0
-2143 69 2207 0
-2143 -69 2206 0
-2144 69 2208 0
-2144 -69 2207 0
-2145 69 2209 0
-2145 -69 2208 0
-2146 69 2210 0
-2146 -69 2209 0
2211 2212 2213 2214 2215 2216 2217 2218 2219 2220 2221 2222 2223 2224 2225 2226 2227 2228 2229 2230 2231 2232 2233 2234 2235 2236 2237 2238 2239 2240 2241 2242 2243 2244 2245 2246 2247 2248 2249 2250 2251 2252 2253 2254 2255 2256 2257 2258 2259 2260 2261 2262 2263 2264 2265 2266 2267 2268 2269 2270 2271 2272 2273 2274 2275 0
-2211 -2212 0
-2211 -2213 0
-2211 -2214 0
-2211 -2215 0
-2211 -2216 0
-2211 -2217 0
-2211 -2218 0
-2211 -2219 0
-2211 -2220 0
-2211 -2221 0
-2211 -2222 0
-2211 -2223 0
-2211 -2224 0
-2211 -2225 0
-2211 -2226 0
-2211 -2227 0
-2211 -2228 0
-2211 -2229 0
-2211 -2230 0
-2211 -2231 0
-2211 -2232 0
-2211 -2233 0
-2211 -2234 0
-2211 -2235 0
-2211 -2236 0
-2211 -2237 0
-2211 -2238 0
-2211 -2239 0
-2211 -2240 0
-2211 -2241 0
-2211 -2242 0
-2211 -2243 0
-2211 -2244 0
-2211 -2245 0
-2211 -2246 0
-2211 -2247 0
-2211 -2248 0
-2211 -2249 0
-2211 -2250 0
-2211 -2251 0
-2211 -2252 0
-2211 -2253 0
-2211 -2254 0
-2211 -2255 0
-2211 -2256 0
-2211 -2257 0
-2211 -2258 0
-2211 -2259 0
-2211 -2260 0
-2211 -2261 0
-2211 -2262 0
-2211 -2263 0
-2211 -2264 0
-2211 -2265 0
-2211 -2266 0
-2211 -2267 0
-2211 -2268 0
-2211 -2269 0
-2211 -2270 0
-2211 -2271 0
-2211 -2272 0
-2211 -2273 0
-2211 -2274 0
-2211 -2275 0
-2212 -2213 0
-2212 -2214 0
-2212 -2215 0
-2212 -2216 0
-2212 -2217 0
-2212 -2218 0
-2212 -2219 0
-2212 -2220 0
-2212 -2221 0
-2212 -2222 0
-2212 -2223 0
-2212 -2224 0
-2212 -2225 0
-2212 -2226 0
-2212 -2227 0
-2212 -2228 0
-2212 -2229 0
-2212 -2230 0
-2212 -2231 0
-2212 -2232 0
-2212 -2233 0
-2212 -2234 0
-2212 -2235 0
-2212 -2236 0
-2212 -2237 0
-2212 -2238 0
-2212 -2239 0
-2212 -2240 0
-2212 -2241 0
-2212 -2242 0
-2212 -2243 0
-2212 -2244 0
-2212 -2245 0
-2212 -2246 0
-2212 -2247 0
-2212 -2248 0
-2212 -2249 0
-2212 -2250 0
-2212 -2251 0
-2212 -2252 0
-2212 -2253 0
-2212 -2254 0
-2212 -2255 0
-2212 -2256 0
-2212 -2257 0
-2212 -2258 0
-2212 -2259 0
-2212 -2260 0
-2212 -2261 0
-2212 -2262 0
-2212 -2263 0
-2212 -2264 0
-2212 -2265 0
-2212 -2266 0
-2212 -2267 0
-2212 -2268 0
-2212 -2269 0
-2212 -2270 0
-2212 -2271 0
-2212 -2272 0
-2212 -2273 0
-2212 -2274 0
-2212 -2275 0
-2213 -2214 0
-2213 -2215 0
-2213 -2216 0
-2213 -2217 0
-2213 -2218 0
-2213 -2219 0
-2213 -2220 0
-2213 -2221 0
-2213 -2222 0
-2213 -2223 0
-2213 -2224 0
-2213 -2225 0
-2213 -2226 0
-2213 -2227 0
-2213 -2228 0
-2213 -2229 0
-2213 -2230 0
-2213 -2231 0
-2213 -2232 0
-2213 -2233 0
-2213 -2234 0
-2213 -2235 0
-2213 -2236 0
-2213 -2237 0
-2213 -2238 0
-2213 -2239 0
-2213 -2240 0
-2213 -2241 0
-2213 -2242 0
-2213 -2243 0
-2213 -2244 0
-2213 -2245 0
-2213 -2246 0
-2213 -2247 0
-2213 -2248 0
-2213 -2249 0
-2213 -2250 0
-2213 -2251 0
-2213 -2252 0
-2213 -2253 0
-2213 -2254 0
-2213 -2255 0
-2213 -2256 0
-2213 -2257 0
-2213 -2258 0
-2213 -2259 0
-2213 -2260 0
-2213 -2261 0
-2213 -2262 0
-2213 -2263 0
-2213 -2264 0
-2213 -2265 0
-2213 -2266 0
-2213 -2267 0
-2213 -2268 0
-2213 -2269 0
-2213 -2270 0
-2213 -2271 0
-2213 -2272 0
-2213 -2273 0
-2213 -2274 0
-2213 -2275 0
-2214 -2215 0
-2214 -2216 0
-2214 -2217 0
-2214 -2218 0
-2214 -2219 0
-2214 -2220 0
-2214 -2221 0
-2214 -2222 0
-2214 -2223 0
-2214 -2224 0
-2214 -2225 0
-2214 -2226 0
-2214 -2227 0
-2214 -2228 0
-2214 -2229 0
-2214 -2230 0
-2214 -2231 0
-2214 -2232 0
-2214 -2233 0
-2214 -2234 0
-2214 -2235 0
-2214 -2236 0
-2214 -2237 0
-2214 -2238 0
-2214 -2239 0
-2214 -2240 0
-2214 -2241 0
-2214 -2242 0
-2214 -2243 0
-2214 -2244 0
-2214 -2245 0
-2214 -2246 0
-2214 -2247 0
-2214 -2248 0
-2214 -2249 0
-2214 -2250 0
-2214 -2251 0
-2214 -2252 0
-2214 -2253 0
-2214 -2254 0
-2214 -2255 0
-2214 -2256 0
-2214 -2257 0
-2214 -2258 0
-2214 -2259 0
-2214 -2260 0
-2214 -2261 0
-2214 -2262 0
-2214 -2263 0
-2214 -2264 0
-2214 -2265 0
-2214 -2266 0
-2214 -2267 0
-2214 -2268 0
-2214 -2269 0
-2214 -2270 0
-2214 -2271 0
-2214 -2272 0
-2214 -2273 0
-2214 -2274 0
-2214 -2275 0
-2215 -2216 0
-2215 -2217 0
-2215 -2218 0
-2215 -2219 0
-2215 -2220 0
-2215 -2221 0
-2215 -2222 0
-2215 -2223 0
-2215 -2224 0
-2215 -2225 0
-2215 -2226 0
-2215 -2227 0
-2215 -2228 0
-2215 -2229 0
-2215 -2230 0
-2215 -2231 0
-2215 -2232 0
-2215 -2233 0
-2215 -2234 0
-2215 -2235 0
-2215 -2236 0
-2215 -2237 0
-2215 -2238 0
-2215 -2239 0
-2215 -2240 0
-2215 -2241 0
-2215 -2242 0
-2215 -2243 0
-2215 -2244 0
-2215 -2245 0
-2215 -2246 0
-2215 -2247 0
-2215 -2248 0
-2215 -2249 0
-2215 -2250 0
-2215 -2251 0
-2215 -2252 0
-2215 -2253 0
-2215 -2254 0
-2215 -2255 0
-2215 -2256 0
-2215 -2257 0
-2215 -2258 0
-2215 -2259 0
-2215 -2260 0
-2215 -2261 0
-2215 -2262 0
-2215 -2263 0
-2215 -2264 0
-2215 -2265 0
-2215 -2266 0
-2215 -2267 0
-2215 -2268 0
-2215 -2269 0
-2215 -2270 0
-2215 -2271 0
-2215 -2272 0
-2215 -2273 0
-2215 -2274 0
-2215 -2275 0
-2216 -2217 0
-2216 -2218 0
-2216 -2219 0
-2216 -2220 0
-2216 -2221 0
-2216 -2222 0
-2216 -2223 0
-2216 -2224 0
-2216 -2225 0
-2216 -2226 0
-2216 -2227 0
-2216 -2228 0
-2216 -2229 0
-2216 -2230 0
-2216 -2231 0
-2216 -2232 0
-2216 -2233 0
-2216 -2234 0
-2216 -2235 0
-2216 -2236 0
-2216 -2237 0
-2216 -2238 0
-2216 -2239 0
-2216 -2240 0
-2216 -2241 0
-2216 -2242 0
-2216 -2243 0
-2216 -2244 0
-2216 -2245 0
-2216 -2246 0
-2216 -2247 0
-2216 -2248 0
-2216 -2249 0
-2216 -2250 0
-2216 -2251 0
-2216 -2252 0
-2216 -2253 0
-2216 -2254 0
-2216 -2255 0
-2216 -2256 0
-2216 -2257 0
-2216 -2258 0
-2216 -2259 0
-2216 -2260 0
-2216 -2261 0
-2216 -2262 0
-2216 -2263 0
-2216 -2264 0
-2216 -2265 0
-2216 -2266 0
-2216 -2267 0
-2216 -2268 0
-2216 -2269 0
-2216 -2270 0
-2216 -2271 0
-2216 -2272 0
-2216 -2273 0
-2216 -2274 0
-2216 -2275 0
-2217 -2218 0
-2217 -2219 0
-2217 -2220 0
-2217 -2221 0
-2217 -2222 0
-2217 -2223 0
-2217 -2224 0
-2217 -2225 0
-2217 -2226 0
-2217 -2227 0
-2217 -2228 0
-2217 -2229 0
-2217 -2230 0
-2217 -2231 0
-2217 -2232 0
-2217 -2233 0
-2217 -2234 0
-2217 -2235 0
-2217 -2236 0
-2217 -2237 0
-2217 -2238 0
-2217 -2239 0
-2217 -2240 0
-2217 -2241 0
-2217 -2242 0
-2217 -2243 0
-2217 -2244 0
-2217 -2245 0
-2217 -2246 0
-2217 -2247 0
-2217 -2248 0
-2217 -2249 0
-2217 -2250 0
-2217 -2251 0
-2217 -2252 0
-2217 -2253 0
-2217 -2254 0
-2217 -2255 0
-2217 -2256 0
-2217 -2257 0
-2217 -2258 0
-2217 -2259 0
-2217 -2260 0
-2217 -2261 0
-2217 -2262 0
-2217 -2263 0
-2217 -2264 0
-2217 -2265 0
-2217 -2266 0
-2217 -2267 0
-2217 -2268 0
-2217 -2269 0
-2217 -2270 0
-2217 -2271 0
-2217 -2272 0
-2217 -2273 0
-2217 -2274 0
-2217 -2275 0
-2218 -2219 0
-2218 -2220 0
-2218 -2221 0
-2218 -2222 0
-2218 -2223 0
-2218 -2224 0
-2218 -2225 0
-2218 -2226 0
-2218 -2227 0
-2218 -2228 0
-2218 -2229 0
-2218 -2230 0
-2218 -2231 0
-2218 -2232 0
-2218 -2233 0
-2218 -2234 0
-2218 -2235 0
-2218 -2236 0
-2218 -2237 0
-2218 -2238 0
-2218 -2239 0
-2218 -2240 0
-2218 -2241 0
-2218 -2242 0
-2218 -2243 0
-2218 -2244 0
-2218 -2245 0
-2218 -2246 0
-2218 -2247 0
-2218 -2248 0
-2218 -2249 0
-2218 -2250 0
-2218 -2251 0
-2218 -2252 0
-2218 -2253 0
-2218 -2254 0
-2218 -2255 0
-2218 -2256 0
-2218 -2257 0
-2218 -2258 0
-2218 -2259 0
-2218 -2260 0
-2218 -2261 0
-2218 -2262 0
-2218 -2263 0
-2218 -2264 0
-2218 -2265 0
-2218 -2266 0
-2218 -2267 0
-2218 -2268 0
-2218 -2269 0
-2218 -2270 0
-2218 -2271 0
-2218 -2272 0
-2218 -2273 0
-2218 -2274 0
-2218 -2275 0
-2219 -2220 0
-2219 -2221 0
-2219 -2222 0
-2219 -2223 0
-2219 -2224 0
-2219 -2225 0
-2219 -2226 0
-2219 -2227 0
-2219 -2228 0
-2219 -2229 0
-2219 -2230 0
-2219 -2231 0
-2219 -2232 0
-2219 -2233 0
-2219 -2234 0
-2219 -2235 0
-2219 -2236 0
-2219 -2237 0
-2219 -2238 0
-2219 -2239 0
-2219 -2240 0
-2219 -2241 0
-2219 -2242 0
-2219 -2243 0
-2219 -2244 0
-2219 -2245 0
-2219 -2246 0
-2219 -2247 0
-2219 -2248 0
-2219 -2249 0
-2219 -2250 0
-2219 -2251 0
-2219 -2252 0
-2219 -2253 0
-2219 -2254 0
-2219 -2255 0
-2219 -2256 0
-2219 -2257 0
-2219 -2258 0
-2219 -2259 0
-2219 -2260 0
-2219 -2261 0
-2219 -2262 0
-2219 -2263 0
-2219 -2264 0
-2219 -2265 0
-2219 -2266 0
-2219 -2267 0
-2219 -2268 0
-2219 -2269 0
-2219 -2270 0
-2219 -2271 0
-2219 -2272 0
-2219 -2273 0
-2219 -2274 0
-2219 -2275 0
-2220 -2221 0
-2220 -2222 0
-2220 -2223 0
-2220 -2224 0
-2220 -2225 0
-2220 -2226 0
-2220 -2227 0
-2220 -2228 0
-2220 -2229 0
-2220 -2230 0
-2220 -2231 0
-2220 -2232 0
-2220 -2233 0
-2220 -2234 0
-2220 -2235 0
-2220 -2236 0
-2220 -2237 0
-2220 -2238 0
-2220 -2239 0
-2220 -2240 0
-2220 -2241 0
-2220 -2242 0
-2220 -2243 0
-2220 -2244 0
-2220 -2245 0
-2220 -2246 0
-2220 -2247 0
-2220 -2248 0
-2220 -2249 0
-2220 -2250 0
-2220 -2251 0
-2220 -2252 0
-2220 -2253 0
-2220 -2254 0
-2220 -2255 0
-2220 -2256 0
-2220 -2257 0
-2220 -2258 0
-2220 -2259 0
-2220 -2260 0
-2220 -2261 0
-2220 -2262 0
-2220 -2263 0
-2220 -2264 0
-2220 -2265 0
-2220 -2266 0
-2220 -2267 0
-2220 -2268 0
-2220 -2269 0
-2220 -2270 0
-2220 -2271 0
-2220 -2272 0
-2220 -2273 0
-2220 -2274 0
-2220 -2275 0
-2221 -2222 0
-2221 -2223 0
-2221 -2224 0
-2221 -2225 0
-2221 -2226 0
-2221 -2227 0
-2221 -2228 0
-2221 -2229 0
-2221 -2230 0
-2221 -2231 0
-2221 -2232 0
-2221 -2233 0
-2221 -2234 0
-2221 -2235 0
-2221 -2236 0
-2221 -2237 0
-2221 -2238 0
-2221 -2239 0
-2221 -2240 0
-2221 -2241 0
-2221 -2242 0
-2221 -2243 0
-2221 -2244 0
-2221 -2245 0
-2221 -2246 0
-2221 -2247 0
-2221 -2248 0
-2221 -2249 0
-2221 -2250 0
-2221 -2251 0
-2221 -2252 0
-2221 -2253 0
-2221 -2254 0
-2221 -2255 0
-2221 -2256 0
-2221 -2257 0
-2221 -2258 0
-2221 -2259 0
-2221 -2260 0
-2221 -2261 0
-2221 -2262 0
-2221 -2263 0
-2221 -2264 0
-2221 -2265 0
-2221 -2266 0
-2221 -2267 0
-2221 -2268 0
-2221 -2269 0
-2221 -2270 0
-2221 -2271 0
-2221 -2272 0
-2221 -2273 0
-2221 -2274 0
-2221 -2275 0
-2222 -2223 0
-2222 -2224 0
-2222 -2225 0
-2222 -2226 0
-2222 -2227 0
-2222 -2228 0
-2222 -2229 0
-2222 -2230 0
-2222 -2231 0
-2222 -2232 0
-2222 -2233 0
-2222 -2234 0
-2222 -2235 0
-2222 -2236 0
-2222 -2237 0
-2222 -2238 0
-2222 -2239 0
-2222 -2240 0
-2222 -2241 0
-2222 -2242 0
-2222 -2243 0
-2222 -2244 0
-2222 -2245 0
-2222 -2246 0
-2222 -2247 0
-2222 -2248 0
-2222 -2249 0
-2222 -2250 0
-2222 -2251 0
-2222 -2252 0
-2222 -2253 0
-2222 -2254 0
-2222 -2255 0
-2222 -2256 0
-2222 -2257 0
-2222 -2258 0
-2222 -2259 0
-2222 -2260 0
-2222 -2261 0
-2222 -2262 0
-2222 -2263 0
-2222 -2264 0
-2222 -2265 0
-2222 -2266 0
-2222 -2267 0
-2222 -2268 0
-2222 -2269 0
-2222 -2270 0
-2222 -2271 0
-2222 -2272 0
-2222 -2273 0
-2222 -2274 0
-2222 -2275 0
-2223 -2224 0
-2223 -2225 0
-2223 -2226 0
-2223 -2227 0
-2223 -2228 0
-2223 -2229 0
-2223 -2230 0
-2223 -2231 0
-2223 -2232 0
-2223 -2233 0
-2223 -2234 0
-2223 -2235 0
-2223 -2236 0
-2223 -2237 0
-2223 -2238 0
-2223 -2239 0
-2223 -2240 0
-2223 -2241 0
-2223 -2242 0
-2223 -2243 0
-2223 -2244 0
-2223 -2245 0
-2223 -2246 0
-2223 -2247 0
-2223 -2248 0
-2223 -2249 0
-2223 -2250 0
-2223 -2251 0
-2223 -2252 0
-2223 -2253 0
-2223 -2254 0
-2223 -2255 0
-2223 -2256 0
-2223 -2257 0
-2223 -2258 0
-2223 -2259 0
-2223 -2260 0
-2223 -2261 0
-2223 -2262 0
-2223 -2263 0
-2223 -2264 0
-2223 -2265 0
-2223 -2266 0
-2223 -2267 0
-2223 -2268 0
-2223 -2269 0
-2223 -2270 0
-2223 -2271 0
-2223 -2272 0
-2223 -2273 0
-2223 -2274 0
-2223 -2275 0
-2224 -2225 0
-2224 -2226 0
-2224 -2227 0
-2224 -2228 0
-2224 -2229 0
-2224 -2230 0
-2224 -2231 0
-2224 -2232 0
-2224 -2233 0
-2224 -2234 0
-2224 -2235 0
-2224 -2236 0
-2224 -2237 0
-2224 -2238 0
-2224 -2239 0
-2224 -2240 0
-2224 -2241 0
-2224 -2242 0
-2224 -2243 0
-2224 -2244 0
-2224 -2245 0
-2224 -2246 0
-2224 -2247 0
-2224 -2248 0
-2224 -2249 0
-2224 -2250 0
-2224 -2251 0
-2224 -2252 0
-2224 -2253 0
-2224 -2254 0
-2224 -2255 0
-2224 -2256 0
-2224 -2257 0
-2224 -2258 0
-2224 -2259 0
-2224 -2260 0
-2224 -2261 0
-2224 -2262 0
-2224 -2263 0
-2224 -2264 0
-2224 -2265 0
-2224 -2266 0
-2224 -2267 0
-2224 -2268 0
-2224 -2269 0
-2224 -2270 0
-2224 -2271 0
-2224 -2272 0
-2224 -2273 0
-2224 -2274 0
-2224 -2275 0
-2225 -2226 0
-2225 -2227 0
-2225 -2228 0
-2225 -2229 0
-2225 -2230 0
-2225 -2231 0
-2225 -2232 0
-2225 -2233 0
-2225 -2234 0
-2225 -2235 0
-2225 -2236 0
-2225 -2237 0
-2225 -2238 0
-2225 -2239 0
-2225 -2240 0
-2225 -2241 0
-2225 -2242 0
-2225 -2243 0
-2225 -2244 0
-2225 -2245 0
-2225 -2246 0
-2225 -2247 0
-2225 -2248 0
-2225 -2249 0
-2225 -2250 0
-2225 -2251 0
-2225 -2252 0
-2225 -2253 0
-2225 -2254 0
-2225 -2255 0
-2225 -2256 0
-2225 -2257 0
-2225 -2258 0
-2225 -2259 0
-2225 -2260 0
-2225 -2261 0
-2225 -2262 0
-2225 -2263 0
-2225 -2264 0
-2225 -2265 0
-2225 -2266 0
-2225 -2267 0
-2225 -2268 0
-2225 -2269 0
-2225 -2270 0
-2225 -2271 0
-2225 -2272 0
-2225 -2273 0
-2225 -2274 0
-2225 -2275 0
-2226 -2227 0
-2226 -2228 0
-2226 -2229 0
-2226 -2230 0
-2226 -2231 0
-2226 -2232 0
-2226 -2233 0
-2226 -2234 0
-2226 -2235 0
-2226 -2236 0
-2226 -2237 0
-2226 -2238 0
-2226 -2239 0
-2226 -2240 0
-2226 -2241 0
-2226 -2242 0
-2226 -2243 0
-2226 -2244 0
-2226 -2245 0
-2226 -2246 0
-2226 -2247 0
-2226 -2248 0
-2226 -2249 0
-2226 -2250 0
-2226 -2251 0
-2226 -2252 0
-2226 -2253 0
-2226 -2254 0
-2226 -2255 0
-2226 -2256 0
-2226 -2257 0
-2226 -2258 0
-2226 -2259 0
-2226 -2260 0
-2226 -2261 0
-2226 -2262 0
-2226 -2263 0
-2226 -2264 0
-2226 -2265 0
-2226 -2266 0
-2226 -2267 0
-2226 -2268 0
-2226 -2269 0
-2226 -2270 0
-2226 -2271 0
-2226 -2272 0
-2226 -2273 0
-2226 -2274 0
-2226 -2275 0
-2227 -2228 0
-2227 -2229 0
-2227 -2230 0
-2227 -2231 0
-2227 -2232 0
-2227 -2233 0
-2227 -2234 0
-2227 -2235 0
-2227 -2236 0
-2227 -2237 0
-2227 -2238 0
-2227 -2239 0
-2227 -2240 0
-2227 -2241 0
-2227 -2242 0
-2227 -2243 0
-2227 -2244 0
-2227 -2245 0
-2227 -2246 0
-2227 -2247 0
-2227 -2248 0
-2227 -2249 0
-2227 -2250 0
-2227 -2251 0
-2227 -2252 0
-2227 -2253 0
-2227 -2254 0
-2227 -2255 0
-2227 -2256 0
-2227 -2257 0
-2227 -2258 0
-2227 -2259 0
-2227 -2260 0
-2227 -2261 0
-2227 -2262 0
-2227 -2263 0
-2227 -2264 0
-2227 -2265 0
-2227 -2266 0
-2227 -2267 0
-2227 -2268 0
-2227 -2269 0
-2227 -2270 0
-2227 -2271 0
-2227 -2272 0
-2227 -2273 0
-2227 -2274 0
-2227 -2275 0
-2228 -2229 0
-2228 -2230 0
-2228 -2231 0
-2228 -2232 0
-2228 -2233 0
-2228 -2234 0
-2228 -2235 0
-2228 -2236 0
-2228 -2237 0
-2228 -2238 0
-2228 -2239 0
-2228 -2240 0
-2228 -2241 0
-2228 -2242 0
-2228 -2243 0
-2228 -2244 0
-2228 -2245 0
-2228 -2246 0
-2228 -2247 0
-2228 -2248 0
-2228 -2249 0
-2228 -2250 0
-2228 -2251 0
-2228 -2252 0
-2228 -2253 0
-2228 -2254 0
-2228 -2255 0
-2228 -2256 0
-2228 -2257 0
-2228 -2258 0
-2228 -2259 0
-2228 -2260 0
-2228 -2261 0
-2228 -2262 0
-2228 -2263 0
-2228 -2264 0
-2228 -2265 0
-2228 -2266 0
-2228 -2267 0
-2228 -2268 0
-2228 -2269 0
-2228 -2270 0
-2228 -2271 0
-2228 -2272 0
-2228 -2273 0
-2228 -2274 0
-2228 -2275 0
-2229 -2230 0
-2229 -2231 0
-2229 -2232 0
-2229 -2233 0
-2229 -2234 0
-2229 -2235 0
-2229 -2236 0
-2229 -2237 0
-2229 -2238 0
-2229 -2239 0
-2229 -2240 0
-2229 -2241 0
-2229 -2242 0
-2229 -2243 0
-2229 -2244 0
-2229 -2245 0
-2229 -2246 0
-2229 -2247 0
-2229 -2248 0
-2229 -2249 0
-2229 -2250 0
-2229 -2251 0
-2229 -2252 0
-2229 -2253 0
-2229 -2254 0
-2229 -2255 0
-2229 -2256 0
-2229 -2257 0
-2229 -2258 0
-2229 -2259 0
-2229 -2260 0
-2229 -2261 0
-2229 -2262 0
-2229 -2263 0
-2229 -2264 0
-2229 -2265 0
-2229 -2266 0
-2229 -2267 0
-2229 -2268 0
-2229 -2269 0
-2229 -2270 0
-2229 -2271 0
-2229 -2272 0
-2229 -2273 0
-2229 -2274 0
-2229 -2275 0
-2230 -2231 0
-2230 -2232 0
-2230 -2233 0
-2230 -2234 0
-2230 -2235 0
-2230 -2236 0
-2230 -2237 0
-2230 -2238 0
-2230 -2239 0
-2230 -2240 0
-2230 -2241 0
-2230 -2242 0
-2230 -2243 0
-2230 -2244 0
-2230 -2245 0
-2230 -2246 0
-2230 -2247 0
-2230 -2248 0
-2230 -2249 0
-2230 -2250 0
-2230 -2251 0
-2230 -2252 0
-2230 -2253 0
-2230 -2254 0
-2230 -2255 0
-2230 -2256 0
-2230 -2257 0
-2230 -2258 0
-2230 -2259 0
-2230 -2260 0
-2230 -2261 0
-2230 -2262 0
-2230 -2263 0
-2230 -2264 0
-2230 -2265 0
-2230 -2266 0
-2230 -2267 0
-2230 -2268 0
-2230 -2269 0
-2230 -2270 0
-2230 -2271 0
-2230 -2272 0
-2230 -2273 0
-2230 -2274 0
-2230 -2275 0
-2231 -2232 0
-2231 -2233 0
-2231 -2234 0
-2231 -2235 0
-2231 -2236 0
-2231 -2237 0
-2231 -2238 0
-2231 -2239 0
-2231 -2240 0
-2231 -2241 0
-2231 -2242 0
-2231 -2243 0
-2231 -2244 0
-2231 -2245 0
-2231 -2246 0
-2231 -2247 0
-2231 -2248 0
-2231 -2249 0
-2231 -2250 0
-2231 -2251 0
-2231 -2252 0
-2231 -2253 0
-2231 -2254 0
-2231 -2255 0
-2231 -2256 0
-2231 -2257 0
-2231 -2258 0
-2231 -2259 0
-2231 -2260 0
-2231 -2261 0
-2231 -2262 0
-2231 -2263 0
-2231 -2264 0
-2231 -2265 0
-2231 -2266 0
-2231 -2267 0
-2231 -2268 0
-2231 -2269 0
-2231 -2270 0
-2231 -2271 0
-2231 -2272 0
-2231 -2273 0
-2231 -2274 0
-2231 -2275 0
-2232 -2233 0
-2232 -2234 0
-2232 -2235 0
-2232 -2236 0
-2232 -2237 0
-2232 -2238 0
-2232 -2239 0
-2232 -2240 0
-2232 -2241 0
-2232 -2242 0
-2232 -2243 0
-2232 -2244 0
-2232 -2245 0
-2232 -2246 0
-2232 -2247 0
-2232 -2248 0
-2232 -2249 0
-2232 -2250 0
-2232 -2251 0
-2232 -2252 0
-2232 -2253 0
-2232 -2254 0
-2232 -2255 0
-2232 -2256 0
-2232 -2257 0
-2232 -2258 0
-2232 -2259 0
-2232 -2260 0
-2232 -2261 0
-2232 -2262 0
-2232 -2263 0
-2232 -2264 0
-2232 -2265 0
-2232 -2266 0
-2232 -2267 0
-2232 -2268 0
-2232 -2269 0
-2232 -2270 0
-2232 -2271 0
-2232 -2272 0
-2232 -2273 0
-2232 -2274 0
-2232 -2275 0
-2233 -2234 0
-2233 -2235 0
-2233 -2236 0
-2233 -2237 0
-2233 -2238 0
-2233 -2239 0
-2233 -2240 0
-2233 -2241 0
-2233 -2242 0
-2233 -2243 0
-2233 -2244 0
-2233 -2245 0
-2233 -2246 0
-2233 -2247 0
-2233 -2248 0
-2233 -2249 0
-2233 -2250 0
-2233 -2251 0
-2233 -2252 0
-2233 -2253 0
-2233 -2254 0
-2233 -2255 0
-2233 -2256 0
-2233 -2257 0
-2233 -2258 0
-2233 -2259 0
-2233 -2260 0
-2233 -2261 0
-2233 -2262 0
-2233 -2263 0
-2233 -2264 0
-2233 -2265 0
-2233 -2266 0
-2233 -2267 0
-2233 -2268 0
-2233 -2269 0
-2233 -2270 0
-2233 -2271 0
-2233 -2272 0
-2233 -2273 0
-2233 -2274 0
-2233 -2275 0
-2234 -2235 0
-2234 -2236 0
-2234 -2237 0
-2234 -2238 0
-2234 -2239 0
-2234 -2240 0
-2234 -2241 0
-2234 -2242 0
-2234 -2243 0
-2234 -2244 0
-2234 -2245 0
-2234 -2246 0
-2234 -2247 0
-2234 -2248 0
-2234 -2249 0
-2234 -2250 0
-2234 -2251 0
-2234 -2252 0
-2234 -2253 0
-2234 -2254 0
-2234 -2255 0
-2234 -2256 0
-2234 -2257 0
-2234 -2258 0
-2234 -2259 0
-2234 -2260 0
-2234 -2261 0
-2234 -2262 0
-2234 -2263 0
-2234 -2264 0
-2234 -2265 0
-2234 -2266 0
-2234 -2267 0
-2234 -2268 0
-2234 -2269 0
-2234 -2270 0
-2234 -2271 0
-2234 -2272 0
-2234 -2273 0
-2234 -2274 0
-2234 -2275 0
-2235 -2236 0
-2235 -2237 0
-2235 -2238 0
-2235 -2239 0
-2235 -2240 0
-2235 -2241 0
-2235 -2242 0
-2235 -2243 0
-2235 -2244 0
-2235 -2245 0
-2235 -2246 0
-2235 -2247 0
-2235 -2248 0
-2235 -2249 0
-2235 -2250 0
-2235 -2251 0
-2235 -2252 0
-2235 -2253 0
-2235 -2254 0
-2235 -2255 0
-2235 -2256 0
-2235 -2257 0
-2235 -2258 0
-2235 -2259 0
-2235 -2260 0
-2235 -2261 0
-2235 -2262 0
-2235 -2263 0
-2235 -2264 0
-2235 -2265 0
-2235 -2266 0
-2235 -2267 0
-2235 -2268 0
-2235 -2269 0
-2235 -2270 0
-2235 -2271 0
-2235 -2272 0
-2235 -2273 0
-2235 -2274 0
-2235 -2275 0
-2236 -2237 0
-2236 -2238 0
-2236 -2239 0
-2236 -2240 0
-2236 -2241 0
-2236 -2242 0
-2236 -2243 0
-2236 -2244 0
-2236 -2245 0
-2236 -2246 0
-2236 -2247 0
-2236 -2248 0
-2236 -2249 0
-2236 -2250 0
-2236 -2251 0
-2236 -2252 0
-2236 -2253 0
-2236 -2254 0
-2236 -2255 0
-2236 -2256 0
-2236 -2257 0
-2236 -2258 0
-2236 -2259 0
-2236 -2260 0
-2236 -2261 0
-2236 -2262 0
-2236 -2263 0
-2236 -2264 0
-2236 -2265 0
-2236 -2266 0
-2236 -2267 0
-2236 -2268 0
-2236 -2269 0
-2236 -2270 0
-2236 -2271 0
-2236 -2272 0
-2236 -2273 0
-2236 -2274 0
-2236 -2275 0
-2237 -2238 0
-2237 -2239 0
-2237 -2240 0
-2237 -2241 0
-2237 -2242 0
-2237 -2243 0
-2237 -2244 0
-2237 -2245 0
-2237 -2246 0
-2237 -2247 0
-2237 -2248 0
-2237 -2249 0
-2237 -2250 0
-2237 -2251 0
-2237 -2252 0
-2237 -2253 0
-2237 -2254 0
-2237 -2255 0
-2237 -2256 0
-2237 -2257 0
-2237 -2258 0
-2237 -2259 0
-2237 -2260 0
-2237 -2261 0
-2237 -2262 0
-2237 -2263 0
-2237 -2264 0
-2237 -2265 0
-2237 -2266 0
-2237 -2267 0
-2237 -2268 0
-2237 -2269 0
-2237 -2270 0
-2237 -2271 0
-2237 -2272 0
-2237 -2273 0
-2237 -2274 0
-2237 -2275 0
-2238 -2239 0
-2238 -2240 0
-2238 -2241 0
-2238 -2242 0
-2238 -2243 0
-2238 -2244 0
-2238 -2245 0
-2238 -2246 0
-2238 -2247 0
-2238 -2248 0
-2238 -2249 0
-2238 -2250 0
-2238 -2251 0
-2238 -2252 0
-2238 -2253 0
-2238 -2254 0
-2238 -2255 0
-2238 -2256 0
-2238 -2257 0
-2238 -2258 0
-2238 -2259 0
-2238 -2260 0
-2238 -2261 0
-2238 -2262 0
-2238 -2263 0
-2238 -2264 0
-2238 -2265 0
-2238 -2266 0
-2238 -2267 0
-2238 -2268 0
-2238 -2269 0
-2238 -2270 0
-2238 -2271 0
-2238 -2272 0
-2238 -2273 0
-2238 -2274 0
-2238 -2275 0
-2239 -2240 0
-2239 -2241 0
-2239 -2242 0
-2239 -2243 0
-2239 -2244 0
-2239 -2245 0
-2239 -2246 0
-2239 -2247 0
-2239 -2248 0
-2239 -2249 0
-2239 -2250 0
-2239 -2251 0
-2239 -2252 0
-2239 -2253 0
-2239 -2254 0
-2239 -2255 0
-2239 -2256 0
-2239 -2257 0
-2239 -2258 0
-2239 -2259 0
-2239 -2260 0
-2239 -2261 0
-2239 -2262 0
-2239 -2263 0
-2239 -2264 0
-2239 -2265 0
-2239 -2266 0
-2239 -2267 0
-2239 -2268 0
-2239 -2269 0
-2239 -2270 0
-2239 -2271 0
-2239 -2272 0
-2239 -2273 0
-2239 -2274 0
-2239 -2275 0
-2240 -2241 0
-2240 -2242 0
-2240 -2243 0
-2240 -2244 0
-2240 -2245 0
-2240 -2246 0
-2240 -2247 0
-2240 -2248 0
-2240 -2249 0
-2240 -2250 0
-2240 -2251 0
-2240 -2252 0
-2240 -2253 0
-2240 -2254 0
-2240 -2255 0
-2240 -2256 0
-2240 -2257 0
-2240 -2258 0
-2240 -2259 0
-2240 -2260 0
-2240 -2261 0
-2240 -2262 0
-2240 -2263 0
-2240 -2264 0
-2240 -2265 0
-2240 -2266 0
-2240 -2267 0
-2240 -2268 0
-2240 -2269 0
-2240 -2270 0
-2240 -2271 0
-2240 -2272 0
-2240 -2273 0
-2240 -2274 0
-2240 -2275 0
-2241 -2242 0
-2241 -2243 0
-2241 -2244 0
-2241 -2245 0
-2241 -2246 0
-2241 -2247 0
-2241 -2248 0
-2241 -2249 0
-2241 -2250 0
-2241 -2251 0
-2241 -2252 0
-2241 -2253 0
-2241 -2254 0
-2241 -2255 0
-2241 -2256 0
-2241 -2257 0
-2241 -2258 0
-2241 -2259 0
-2241 -2260 0
-2241 -2261 0
-2241 -2262 0
-2241 -2263 0
-2241 -2264 0
-2241 -2265 0
-2241 -2266 0
-2241 -2267 0
-2241 -2268 0
-2241 -2269 0
-2241 -2270 0
-2241 -2271 0
-2241 -2272 0
-2241 -2273 0
-2241 -2274 0
-2241 -2275 0
-2242 -2243 0
-2242 -2244 0
-2242 -2245 0
-2242 -2246 0
-2242 -2247 0
-2242 -2248 0
-2242 -2249 0
-2242 -2250 0
-2242 -2251 0
-2242 -2252 0
-2242 -2253 0
-2242 -2254 0
-2242 -2255 0
-2242 -2256 0
-2242 -2257 0
-2242 -2258 0
-2242 -2259 0
-2242 -2260 0
-2242 -2261 0
-2242 -2262 0
-2242 -2263 0
-2242 -2264 0
-2242 -2265 0
-2242 -2266 0
-2242 -2267 0
-2242 -2268 0
-2242 -2269 0
-2242 -2270 0
-2242 -2271 0
-2242 -2272 0
-2242 -2273 0
-2242 -2274 0
-2242 -2275 0
-2243 -2244 0
-2243 -2245 0
-2243 -2246 0
-2243 -2247 0
-2243 -2248 0
-2243 -2249 0
-2243 -2250 0
-2243 -2251 0
-2243 -2252 0
-2243 -2253 0
-2243 -2254 0
-2243 -2255 0
-2243 -2256 0
-2243 -2257 0
-2243 -2258 0
-2243 -2259 0
-2243 -2260 0
-2243 -2261 0
-2243 -2262 0
-2243 -2263 0
-2243 -2264 0
-2243 -2265 0
-2243 -2266 0
-2243 -2267 0
-2243 -2268 0
-2243 -2269 0
-2243 -2270 0
-2243 -2271 0
-2243 -2272 0
-2243 -2273 0
-2243 -2274 0
-2243 -2275 0
-2244 -2245 0
-2244 -2246 0
-2244 -2247 0
-2244 -2248 0
-2244 -2249 0
-2244 -2250 0
-2244 -2251 0
-2244 -2252 0
-2244 -2253 0
-2244 -2254 0
-2244 -2255 0
-2244 -2256 0
-2244 -2257 0
-2244 -2258 0
-2244 -2259 0
-2244 -2260 0
-2244 -2261 0
-2244 -2262 0
-2244 -2263 0
-2244 -2264 0
-2244 -2265 0
-2244 -2266 0
-2244 -2267 0
-2244 -2268 0
-2244 -2269 0
-2244 -2270 0
-2244 -2271 0
-2244 -2272 0
-2244 -2273 0
-2244 -2274 0
-2244 -2275 0
-2245 -2246 0
-2245 -2247 0
-2245 -2248 0
-2245 -2249 0
-2245 -2250 0
-2245 -2251 0
-2245 -2252 0
-2245 -2253 0
-2245 -2254 0
-2245 -2255 0
-2245 -2256 0
-2245 -2257 0
-2245 -2258 0
-2245 -2259 0
-2245 -2260 0
-2245 -2261 0
-2245 -2262 0
-2245 -2263 0
-2245 -2264 0
-2245 -2265 0
-2245 -2266 0
-2245 -2267 0
-2245 -2268 0
-2245 -2269 0
-2245 -2270 0
-2245 -2271 0
-2245 -2272 0
-2245 -2273 0
-2245 -2274 0
-2245 -2275 0
-2246 -2247 0
-2246 -2248 0
-2246 -2249 0
-2246 -2250 0
-2246 -2251 0
-2246 -2252 0
-2246 -2253 0
-2246 -2254 0
-2246 -2255 0
-2246 -2256 0
-2246 -2257 0
-2246 -2258 0
-2246 -2259 0
-2246 -2260 0
-2246 -2261 0
-2246 -2262 0
-2246 -2263 0
-2246 -2264 0
-2246 -2265 0
-2246 -2266 0
-2246 -2267 0
-2246 -2268 0
-2246 -2269 0
-2246 -2270 0
-2246 -2271 0
-2246 -2272 0
-2246 -2273 0
-2246 -2274 0
-2246 -2275 0
-2247 -2248 0
-2247 -2249 0
-2247 -2250 0
-2247 -2251 0
-2247 -2252 0
-2247 -2253 0
-2247 -2254 0
-2247 -2255 0
-2247 -2256 0
-2247 -2257 0
-2247 -2258 0
-2247 -2259 0
-2247 -2260 0
-2247 -2261 0
-2247 -2262 0
-2247 -2263 0
-2247 -2264 0
-2247 -2265 0
-2247 -2266 0
-2247 -2267 0
-2247 -2268 0
-2247 -2269 0
-2247 -2270 0
-2247 -2271 0
-2247 -2272 0
-2247 -2273 0
-2247 -2274 0
-2247 -2275 0
-2248 -2249 0
-2248 -2250 0
-2248 -2251 0
-2248 -2252 0
-2248 -2253 0
-2248 -2254 0
-2248 -2255 0
-2248 -2256 0
-2248 -2257 0
-2248 -2258 0
-2248 -2259 0
-2248 -2260 0
-2248 -2261 0
-2248 -2262 0
-2248 -2263 0
-2248 -2264 0
-2248 -2265 0
-2248 -2266 0
-2248 -2267 0
-2248 -2268 0
-2248 -2269 0
-2248 -2270 0
-2248 -2271 0
-2248 -2272 0
-2248 -2273 0
-2248 -2274 0
-2248 -2275 0
-2249 -2250 0
-2249 -2251 0
-2249 -2252 0
-2249 -2253 0
-2249 -2254 0
-2249 -2255 0
-2249 -2256 0
-2249 -2257 0
-2249 -2258 0
-2249 -2259 0
-2249 -2260 0
-2249 -2261 0
-2249 -2262 0
-2249 -2263 0
-2249 -2264 0
-2249 -2265 0
-2249 -2266 0
-2249 -2267 0
-2249 -2268 0
-2249 -2269 0
-2249 -2270 0
-2249 -2271 0
-2249 -2272 0
-2249 -2273 0
-2249 -2274 0
-2249 -2275 0
-2250 -2251 0
-2250 -2252 0
-2250 -2253 0
-2250 -2254 0
-2250 -2255 0
-2250 -2256 0
-2250 -2257 0
-2250 -2258 0
-2250 -2259 0
-2250 -2260 0
-2250 -2261 0
-2250 -2262 0
-2250 -2263 0
-2250 -2264 0
-2250 -2265 0
-2250 -2266 0
-2250 -2267 0
-2250 -2268 0
-2250 -2269 0
-2250 -2270 0
-2250 -2271 0
-2250 -2272 0
-2250 -2273 0
-2250 -2274 0
-2250 -2275 0
-2251 -2252 0
-2251 -2253 0
-2251 -2254 0
-2251 -2255 0
-2251 -2256 0
-2251 -2257 0
-2251 -2258 0
-2251 -2259 0
-2251 -2260 0
-2251 -2261 0
-2251 -2262 0
-2251 -2263 0
-2251 -2264 0
-2251 -2265 0
-2251 -2266 0
-2251 -2267 0
-2251 -2268 0
-2251 -2269 0
-2251 -2270 0
-2251 -2271 0
-2251 -2272 0
-2251 -2273 0
-2251 -2274 0
-2251 -2275 0
-2252 -2253 0
-2252 -2254 0
-2252 -2255 0
-2252 -2256 0
-2252 -2257 0
-2252 -2258 0
-2252 -2259 0
-2252 -2260 0
-2252 -2261 0
-2252 -2262 0
-2252 -2263 0
-2252 -2264 0
-2252 -2265 0
-2252 -2266 0
-2252 -2267 0
-2252 -2268 0
-2252 -2269 0
-2252 -2270 0
-2252 -2271 0
-2252 -2272 0
-2252 -2273 0
-2252 -2274 0
-2252 -2275 0
-2253 -2254 0
-2253 -2255 0
-2253 -2256 0
-2253 -2257 0
-2253 -2258 0
-2253 -2259 0
-2253 -2260 0
-2253 -2261 0
-2253 -2262 0
-2253 -2263 0
-2253 -2264 0
-2253 -2265 0
-2253 -2266 0
-2253 -2267 0
-2253 -2268 0
-2253 -2269 0
-2253 -2270 0
-2253 -2271 0
-2253 -2272 0
-2253 -2273 0
-2253 -2274 0
-2253 -2275 0
-2254 -2255 0
-2254 -2256 0
-2254 -2257 0
-2254 -2258 0
-2254 -2259 0
-2254 -2260 0
-2254 -2261 0
-2254 -2262 0
-2254 -2263 0
-2254 -2264 0
-2254 -2265 0
-2254 -2266 0
-2254 -2267 0
-2254 -2268 0
-2254 -2269 0
-2254 -2270 0
-2254 -2271 0
-2254 -2272 0
-2254 -2273 0
-2254 -2274 0
-2254 -2275 0
-2255 -2256 0
-2255 -2257 0
-2255 -2258 0
-2255 -2259 0
-2255 -2260 0
-2255 -2261 0
-2255 -2262 0
-2255 -2263 0
-2255 -2264 0
-2255 -2265 0
-2255 -2266 0
-2255 -2267 0
-2255 -2268 0
-2255 -2269 0
-2255 -2270 0
-2255 -2271 0
-2255 -2272 0
-2255 -2273 0
-2255 -2274 0
-2255 -2275 0
-2256 -2257 0
-2256 -2258 0
-2256 -2259 0
-2256 -2260 0
-2256 -2261 0
-2256 -2262 0
-2256 -2263 0
-2256 -2264 0
-2256 -2265 0
-2256 -2266 0
-2256 -2267 0
-2256 -2268 0
-2256 -2269 0
-2256 -2270 0
-2256 -2271 0
-2256 -2272 0
-2256 -2273 0
-2256 -2274 0
-2256 -2275 0
-2257 -2258 0
-2257 -2259 0
-2257 -2260 0
-2257 -2261 0
-2257 -2262 0
-2257 -2263 0
-2257 -2264 0
-2257 -2265 0
-2257 -2266 0
-2257 -2267 0
-2257 -2268 0
-2257 -2269 0
-2257 -2270 0
-2257 -2271 0
-2257 -2272 0
-2257 -2273 0
-2257 -2274 0
-2257 -2275 0
-2258 -2259 0
-2258 -2260 0
-2258 -2261 0
-2258 -2262 0
-2258 -2263 0
-2258 -2264 0
-2258 -2265 0
-2258 -2266 0
-2258 -2267 0
-2258 -2268 0
-2258 -2269 0
-2258 -2270 0
-2258 -2271 0
-2258 -2272 0
-2258 -2273 0
-2258 -2274 0
-2258 -2275 0
-2259 -2260 0
-2259 -2261 0
-2259 -2262 0
-2259 -2263 0
-2259 -2264 0
-2259 -2265 0
-2259 -2266 0
-2259 -2267 0
-2259 -2268 0
-2259 -2269 0
-2259 -2270 0
-2259 -2271 0
-2259 -2272 0
-2259 -2273 0
-2259 -2274 0
-2259 -2275 0
-2260 -2261 0
-2260 -2262 0
-2260 -2263 0
-2260 -2264 0
-2260 -2265 0
-2260 -2266 0
-2260 -2267 0
-2260 -2268 0
-2260 -2269 0
-2260 -2270 0
-2260 -2271 0
-2260 -2272 0
-2260 -2273 0
-2260 -2274 0
-2260 -2275 0
-2261 -2262 0
-2261 -2263 0
-2261 -2264 0
-2261 -2265 0
-2261 -2266 0
-2261 -2267 0
-2261 -2268 0
-2261 -2269 0
-2261 -2270 0
-2261 -2271 0
-2261 -2272 0
-2261 -2273 0
-2261 -2274 0
-2261 -2275 0
-2262 -2263 0
-2262 -2264 0
-2262 -2265 0
-2262 -2266 0
-2262 -2267 0
-2262 -2268 0
-2262 -2269 0
-2262 -2270 0
-2262 -2271 0
-2262 -2272 0
-2262 -2273 0
-2262 -2274 0
-2262 -2275 0
-2263 -2264 0
-2263 -2265 0
-2263 -2266 0
-2263 -2267 0
-2263 -2268 0
-2263 -2269 0
-2263 -2270 0
-2263 -2271 0
-2263 -2272 0
-2263 -2273 0
-2263 -2274 0
-2263 -2275 0
-2264 -2265 0
-2264 -2266 0
-2264 -2267 0
-2264 -2268 0
-2264 -2269 0
-2264 -2270 0
-2264 -2271 0
-2264 -2272 0
-2264 -2273 0
-2264 -2274 0
-2264 -2275 0
-2265 -2266 0
-2265 -2267 0
-2265 -2268 0
-2265 -2269 0
-2265 -2270 0
-2265 -2271 0
-2265 -2272 0
-2265 -2273 0
-2265 -2274 0
-2265 -2275 0
-2266 -2267 0
-2266 -2268 0
-2266 -2269 0
-2266 -2270 0
-2266 -2271 0
-2266 -2272 0
-2266 -2273 0
-2266 -2274 0
-2266 -2275 0
-2267 -2268 0
-2267 -2269 0
-2267 -2270 0
-2267 -2271 0
-2267 -2272 0
-2267 -2273 0
-2267 -2274 0
-2267 -2275 0
-2268 -2269 0
-2268 -2270 0
-2268 -2271 0
-2268 -2272 0
-2268 -2273 0
-2268 -2274 0
-2268 -2275 0
-2269 -2270 0
-2269 -2271 0
-2269 -2272 0
-2269 -2273 0
-2269 -2274 0
-2269 -2275 0
-2270 -2271 0
-2270 -2272 0
-2270 -2273 0
-2270 -2274 0
-2270 -2275 0
-2271 -2272 0
-2271 -2273 0
-2271 -2274 0
-2271 -2275 0
-2272 -2273 0
-2272 -2274 0
-2272 -2275 0
-2273 -2274 0
-2273 -2275 0
-2274 -2275 0
-2147 72 2212 0
-2147 -72 2211 0
-2148 72 2213 0
-2148 -72 2212 0
-2149 72 2214 0
-2149 -72 2213 0
-2150 72 2215 0
-2150 -72 2214 0
-2151 72 2216 0
-2151 -72 2215 0
-2152 72 2217 0
-2152 -72 2216 0
-2153 72 2218 0
-2153 -72 2217 0
-2154 72 2219 0
-2154 -72 2218 0
-2155 72 2220 0
-2155 -72 2219 0
-2156 72 2221 0
-2156 -72 2220 0
-2157 72 2222 0
-2157 -72 2221 0
-2158 72 2223 0
-2158 -72 2222 0
-2159 72 2224 0
-2159 -72 2223 0
-2160 72 2225 0
-2160 -72 2224 0
-2161 72 2226 0
-2161 -72 2225 0
-2162 72 2227 0
-2162 -72 2226 0
-2163 72 2228 0
-2163 -72 2227 0
-2164 72 2229 0
-2164 -72 2228 0
-2165 72 2230 0
-2165 -72 2229 0
-2166 72 2231 0
-2166 -72 2230 0
-2167 72 2232 0
-2167 -72 2231 0
-2168 72 2233 0
-2168 -72 2232 0
-2169 72 2234 0
-2169 -72 2233 0
-2170 72 2235 0
-2170 -72 2234 0
-2171 72 2236 0
-2171 -72 2235 0
-2172 72 2237 0
-2172 -72 2236 0
-2173 72 2238 0
-2173 -72 2237 0
-2174 72 2239 0
-2174 -72 2238 0
-2175 72 2240 0
-2175 -72 2239 0
-2176 72 2241 0
-2176 -72 2240 0
-2177 72 2242 0
-2177 -72 2241 0
-2178 72 2243 0
-2178 -72 2242 0
-2179 72 2244 0
-2179 -72 2243 0
-2180 72 2245 0
-2180 -72 2244 0
-2181 72 2246 0
-2181 -72 2245 0
-2182 72 2247 0
-2182 -72 2246 0
-2183 72 2248 0
-2183 -72 2247 0
-2184 72 2249 0
-2184 -72 2248 0
-2185 72 2250 0
-2185 -72 2249 0
-2186 72 2251 0
-2186 -72 2250 0
-2187 72 2252 0
-2187 -72 2251 0
-2188 72 2253 0
-2188 -72 2252 0
-2189 72 2254 0
-2189 -72 2253 0
-2190 72 2255 0
-2190 -72 2254 0
-2191 72 2256 0
-2191 -72 2255 0
-2192 72 2257 0
-2192 -72 2256 0
-2193 72 2258 0
-2193 -72 2257 0
-2194 72 2259 0
-2194 -72 2258 0
-2195 72 2260 0
-2195 -72 2259 0
-2196 72 2261 0
-2196 -72 2260 0
-2197 72 2262 0
-2197 -72 2261 0
-2198 72 2263 0
-2198 -72 2262 0
-2199 72 2264 0
-2199 -72 2263 0
-2200 72 2265 0
-2200 -72 2264 0
-2201 72 2266 0
-2201 -72 2265 0
-2202 72 2267 0
-2202 -72 2266 0
-2203 72 2268 0
-2203 -72 2267 0
-2204 72 2269 0
-2204 -72 2268 0
-2205 72 2270 0
-2205 -72 2269 0
-2206 72 2271 0
-2206 -72 2270 0
-2207 72 2272 0
-2207 -72 2271 0
-2208 72 2273 0
-2208 -72 2272 0
-2209 72 2274 0
-2209 -72 2273 0
-2210 72 2275 0
-2210 -72 2274 0
2276 2277 2278 2279 2280 2281 2282 2283 2284 2285 2286 2287 2288 2289 2290 2291 2292 2293 2294 2295 2296 2297 2298 2299 2300 2301 2302 2303 2304 2305 2306 2307 2308 2309 2310 2311 2312 2313 2314 2315 2316 2317 2318 2319 2320 2321 2322 2323 2324 2325 2326 2327 2328 2329 2330 2331 2332 2333 2334 2335 2336 2337 2338 2339 2340 2341 0
-2276 -2277 0
-2276 -2278 0
-2276 -2279 0
-2276 -2280 0
-2276 -2281 0
-2276 -2282 0
-2276 -2283 0
-2276 -2284 0
-2276 -2285 0
-2276 -2286 0
-2276 -2287 0
-2276 -2288 0
-2276 -2289 0
-2276 -2290 0
-2276 -2291 0
-2276 -2292 0
-2276 -2293 0
-2276 -2294 0
-2276 -2295 0
-2276 -2296 0
-2276 -2297 0
-2276 -2298 0
-2276 -2299 0
-2276 -2300 0
-2276 -2301 0
-2276 -2302 0
-2276 -2303 0
-2276 -2304 0
-2276 -2305 0
-2276 -2306 0
-2276 -2307 0
-2276 -2308 0
-2276 -2309 0
-2276 -2310 0
-2276 -2311 0
-2276 -2312 0
-2276 -2313 0
-2276 -2314 0
-2276 -2315 0
-2276 -2316 0
-2276 -2317 0
-2276 -2318 0
-2276 -2319 0
-2276 -2320 0
-2276 -2321 0
-2276 -2322 0
-2276 -2323 0
-2276 -2324 0
-2276 -2325 0
-2276 -2326 0
-2276 -2327 0
-2276 -2328 0
-2276 -2329 0
-2276 -2330 0
-2276 -2331 0
-2276 -2332 0
-2276 -2333 0
-2276 -2334 0
-2276 -2335 0
-2276 -2336 0
-2276 -2337 0
-2276 -2338 0
-2276 -2339 0
-2276 -2340 0
-2276 -2341 0
-2277 -2278 0
-2277 -2279 0
-2277 -2280 0
-2277 -2281 0
-2277 -2282 0
-2277 -2283 0
-2277 -2284 0
-2277 -2285 0
-2277 -2286 0
-2277 -2287 0
-2277 -2288 0
-2277 -2289 0
-2277 -2290 0
-2277 -2291 0
-2277 -2292 0
-2277 -2293 0
-2277 -2294 0
-2277 -2295 0
-2277 -2296 0
-2277 -2297 0
-2277 -2298 0
-2277 -2299 0
-2277 -2300 0
-2277 -2301 0
-2277 -2302 0
-2277 -2303 0
-2277 -2304 0
-2277 -2305 0
-2277 -2306 0
-2277 -2307 0
-2277 -2308 0
-2277 -2309 0
-2277 -2310 0
-2277 -2311 0
-2277 -2312 0
-2277 -2313 0
-2277 -2314 0
-2277 -2315 0
-2277 -2316 0
-2277 -2317 0
-2277 -2318 0
-2277 -2319 0
-2277 -2320 0
-2277 -2321 0
-2277 -2322 0
-2277 -2323 0
-2277 -2324 0
-2277 -2325 0
-2277 -2326 0
-2277 -2327 0
-2277 -2328 0
-2277 -2329 0
-2277 -2330 0
-2277 -2331 0
-2277 -2332 0
-2277 -2333 0
-2277 -2334 0
-2277 -2335 0
-2277 -2336 0
-2277 -2337 0
-2277 -2338 0
-2277 -2339 0
-2277 -2340 0
-2277 -2341 0
-2278 -2279 0
-2278 -2280 0
-2278 -2281 0
-2278 -2282 0
-2278 -2283 0
-2278 -2284 0
-2278 -2285 0
-2278 -2286 0
-2278 -2287 0
-2278 -2288 0
-2278 -2289 0
-2278 -2290 0
-2278 -2291 0
-2278 -2292 0
-2278 -2293 0
-2278 -2294 0
-2278 -2295 0
-2278 -2296 0
-2278 -2297 0
-2278 -2298 0
-2278 -2299 0
-2278 -2300 0
-2278 -2301 0
-2278 -2302 0
-2278 -2303 0
-2278 -2304 0
-2278 -2305 0
-2278 -2306 0
-2278 -2307 0
-2278 -2308 0
-2278 -2309 0
-2278 -2310 0
-2278 -2311 0
-2278 -2312 0
-2278 -2313 0
-2278 -2314 0
-2278 -2315 0
-2278 -2316 0
-2278 -2317 0
-2278 -2318 0
-2278 -2319 0
-2278 -2320 0
-2278 -2321 0
-2278 -2322 0
-2278 -2323 0
-2278 -2324 0
-2278 -2325 0
-2278 -2326 0
-2278 -2327 0
-2278 -2328 0
-2278 -2329 0
-2278 -2330 0
-2278 -2331 0
-2278 -2332 0
-2278 -2333 0
-2278 -2334 0
-2278 -2335 0
-2278 -2336 0
-2278 -2337 0
-2278 -2338 0
-2278 -2339 0
-2278 -2340 0
-2278 -2341 0
-2279 -2280 0
-2279 -2281 0
-2279 -2282 0
-2279 -2283 0
-2279 -2284 0
-2279 -2285 0
-2279 -2286 0
-2279 -2287 0
-2279 -2288 0
-2279 -2289 0
-2279 -2290 0
-2279 -2291 0
-2279 -2292 0
-2279 -2293 0
-2279 -2294 0
-2279 -2295 0
-2279 -2296 0
-2279 -2297 0
-2279 -2298 0
-2279 -2299 0
-2279 -2300 0
-2279 -2301 0
-2279 -2302 0
-2279 -2303 0
-2279 -2304 0
-2279 -2305 0
-2279 -2306 0
-2279 -2307 0
-2279 -2308 0
-2279 -2309 0
-2279 -2310 0
-2279 -2311 0
-2279 -2312 0
-2279 -2313 0
-2279 -2314 0
-2279 -2315 0
-2279 -2316 0
-2279 -2317 0
-2279 -2318 0
-2279 -2319 0
-2279 -2320 0
-2279 -2321 0
-2279 -2322 0
-2279 -2323 0
-2279 -2324 0
-2279 -2325 0
-2279 -2326 0
-2279 -2327 0
-2279 -2328 0
-2279 -2329 0
-2279 -2330 0
-2279 -2331 0
-2279 -2332 0
-2279 -2333 0
-2279 -2334 0
-2279 -2335 0
-2279 -2336 0
-2279 -2337 0
-2279 -2338 0
-2279 -2339 0
-2279 -2340 0
-2279 -2341 0
-2280 -2281 0
-2280 -2282 0
-2280 -2283 0
-2280 -2284 0
-2280 -2285 0
-2280 -2286 0
-2280 -2287 0
-2280 -2288 0
-2280 -2289 0
-2280 -2290 0
-2280 -2291 0
-2280 -2292 0
-2280 -2293 0
-2280 -2294 0
-2280 -2295 0
-2280 -2296 0
-2280 -2297 0
-2280 -2298 0
-2280 -2299 0
-2280 -2300 0
-2280 -2301 0
-2280 -2302 0
-2280 -2303 0
-2280 -2304 0
-2280 -2305 0
-2280 -2306 0
-2280 -2307 0
-2280 -2308 0
-2280 -2309 0
-2280 -2310 0
-2280 -2311 0
-2280 -2312 0
-2280 -2313 0
-2280 -2314 0
-2280 -2315 0
-2280 -2316 0
-2280 -2317 0
-2280 -2318 0
-2280 -2319 0
-2280 -2320 0
-2280 -2321 0
-2280 -2322 0
-2280 -2323 0
-2280 -2324 0
-2280 -2325 0
-2280 -2326 0
-2280 -2327 0
-2280 -2328 0
-2280 -2329 0
-2280 -2330 0
-2280 -2331 0
-2280 -2332 0
-2280 -2333 0
-2280 -2334 0
-2280 -2335 0
-2280 -2336 0
-2280 -2337 0
-2280 -2338 0
-2280 -2339 0
-2280 -2340 0
-2280 -2341 0
-2281 -2282 0
-2281 -2283 0
-2281 -2284 0
-2281 -2285 0
-2281 -2286 0
-2281 -2287 0
-2281 -2288 0
-2281 -2289 0
-2281 -2290 0
-2281 -2291 0
-2281 -2292 0
-2281 -2293 0
-2281 -2294 0
-2281 -2295 0
-2281 -2296 0
-2281 -2297 0
-2281 -2298 0
-2281 -2299 0
-2281 -2300 0
-2281 -2301 0
-2281 -2302 0
-2281 -2303 0
-2281 -2304 0
-2281 -2305 0
-2281 -2306 0
-2281 -2307 0
-2281 -2308 0
-2281 -2309 0
-2281 -2310 0
-2281 -2311 0
-2281 -2312 0
-2281 -2313 0
-2281 -2314 0
-2281 -2315 0
-2281 -2316 0
-2281 -2317 0
-2281 -2318 0
-2281 -2319 0
-2281 -2320 0
-2281 -2321 0
-2281 -2322 0
-2281 -2323 0
-2281 -2324 0
-2281 -2325 0
-2281 -2326 0
-2281 -2327 0
-2281 -2328 0
-2281 -2329 0
-2281 -2330 0
-2281 -2331 0
-2281 -2332 0
-2281 -2333 0
-2281 -2334 0
-2281 -2335 0
-2281 -2336 0
-2281 -2337 0
-2281 -2338 0
-2281 -2339 0
-2281 -2340 0
-2281 -2341 0
-2282 -2283 0
-2282 -2284 0
-2282 -2285 0
-2282 -2286 0
-2282 -2287 0
-2282 -2288 0
-2282 -2289 0
-2282 -2290 0
-2282 -2291 0
-2282 -2292 0
-2282 -2293 0
-2282 -2294 0
-2282 -2295 0
-2282 -2296 0
-2282 -2297 0
-2282 -2298 0
-2282 -2299 0
-2282 -2300 0
-2282 -2301 0
-2282 -2302 0
-2282 -2303 0
-2282 -2304 0
-2282 -2305 0
-2282 -2306 0
-2282 -2307 0
-2282 -2308 0
-2282 -2309 0
-2282 -2310 0
-2282 -2311 0
-2282 -2312 0
-2282 -2313 0
-2282 -2314 0
-2282 -2315 0
-2282 -2316 0
-2282 -2317 0
-2282 -2318 0
-2282 -2319 0
-2282 -2320 0
-2282 -2321 0
-2282 -2322 0
-2282 -2323 0
-2282 -2324 0
-2282 -2325 0
-2282 -2326 0
-2282 -2327 0
-2282 -2328 0
-2282 -2329 0
-2282 -2330 0
-2282 -2331 0
-2282 -2332 0
-2282 -2333 0
-2282 -2334 0
-2282 -2335 0
-2282 -2336 0
-2282 -2337 0
-2282 -2338 0
-2282 -2339 0
-2282 -2340 0
-2282 -2341 0
-2283 -2284 0
-2283 -2285 0
-2283 -2286 0
-2283 -2287 0
-2283 -2288 0
-2283 -2289 0
-2283 -2290 0
-2283 -2291 0
-2283 -2292 0
-2283 -2293 0
-2283 -2294 0
-2283 -2295 0
-2283 -2296 0
-2283 -2297 0
-2283 -2298 0
-2283 -2299 0
-2283 -2300 0
-2283 -2301 0
-2283 -2302 0
-2283 -2303 0
-2283 -2304 0
-2283 -2305 0
-2283 -2306 0
-2283 -2307 0
-2283 -2308 0
-2283 -2309 0
-2283 -2310 0
-2283 -2311 0
-2283 -2312 0
-2283 -2313 0
-2283 -2314 0
-2283 -2315 0
-2283 -2316 0
-2283 -2317 0
-2283 -2318 0
-2283 -2319 0
-2283 -2320 0
-2283 -2321 0
-2283 -2322 0
-2283 -2323 0
-2283 -2324 0
-2283 -2325 0
-2283 -2326 0
-2283 -2327 0
-2283 -2328 0
-2283 -2329 0
-2283 -2330 0
-2283 -2331 0
-2283 -2332 0
-2283 -2333 0
-2283 -2334 0
-2283 -2335 0
-2283 -2336 0
-2283 -2337 0
-2283 -2338 0
-2283 -2339 0
-2283 -2340 0
-2283 -2341 0
-2284 -2285 0
-2284 -2286 0
-2284 -2287 0
-2284 -2288 0
-2284 -2289 0
-2284 -2290 0
-2284 -2291 0
-2284 -2292 0
-2284 -2293 0
-2284 -2294 0
-2284 -2295 0
-2284 -2296 0
-2284 -2297 0
-2284 -2298 0
-2284 -2299 0
-2284 -2300 0
-2284 -2301 0
-2284 -2302 0
-2284 -2303 0
-2284 -2304 0
-2284 -2305 0
-2284 -2306 0
-2284 -2307 0
-2284 -2308 0
-2284 -2309 0
-2284 -2310 0
-2284 -2311 0
-2284 -2312 0
-2284 -2313 0
-2284 -2314 0
-2284 -2315 0
-2284 -2316 0
-2284 -2317 0
-2284 -2318 0
-2284 -2319 0
-2284 -2320 0
-2284 -2321 0
-2284 -2322 0
-2284 -2323 0
-2284 -2324 0
-2284 -2325 0
-2284 -2326 0
-2284 -2327 0
-2284 -2328 0
-2284 -2329 0
-2284 -2330 0
-2284 -2331 0
-2284 -2332 0
-2284 -2333 0
-2284 -2334 0
-2284 -2335 0
-2284 -2336 0
-2284 -2337 0
-2284 -2338 0
-2284 -2339 0
-2284 -2340 0
-2284 -2341 0
-2285 -2286 0
-2285 -2287 0
-2285 -2288 0
-2285 -2289 0
-2285 -2290 0
-2285 -2291 0
-2285 -2292 0
-2285 -2293 0
-2285 -2294 0
-2285 -2295 0
-2285 -2296 0
-2285 -2297 0
-2285 -2298 0
-2285 -2299 0
-2285 -2300 0
-2285 -2301 0
-2285 -2302 0
-2285 -2303 0
-2285 -2304 0
-2285 -2305 0
-2285 -2306 0
-2285 -2307 0
-2285 -2308 0
-2285 -2309 0
-2285 -2310 0
-2285 -2311 0
-2285 -2312 0
-2285 -2313 0
-2285 -2314 0
-2285 -2315 0
-2285 -2316 0
-2285 -2317 0
-2285 -2318 0
-2285 -2319 0
-2285 -2320 0
-2285 -2321 0
-2285 -2322 0
-2285 -2323 0
-2285 -2324 0
-2285 -2325 0
-2285 -2326 0
-2285 -2327 0
-2285 -2328 0
-2285 -2329 0
-2285 -2330 0
-2285 -2331 0
-2285 -2332 0
-2285 -2333 0
-2285 -2334 0
-2285 -2335 0
-2285 -2336 0
-2285 -2337 0
-2285 -2338 0
-2285 -2339 0
-2285 -2340 0
-2285 -2341 0
-2286 -2287 0
-2286 -2288 0
-2286 -2289 0
-2286 -2290 0
-2286 -2291 0
-2286 -2292 0
-2286 -2293 0
-2286 -2294 0
-2286 -2295 0
-2286 -2296 0
-2286 -2297 0
-2286 -2298 0
-2286 -2299 0
-2286 -2300 0
-2286 -2301 0
-2286 -2302 0
-2286 -2303 0
-2286 -2304 0
-2286 -2305 0
-2286 -2306 0
-2286 -2307 0
-2286 -2308 0
-2286 -2309 0
-2286 -2310 0
-2286 -2311 0
-2286 -2312 0
-2286 -2313 0
-2286 -2314 0
-2286 -2315 0
-2286 -2316 0
-2286 -2317 0
-2286 -2318 0
-2286 -2319 0
-2286 -2320 0
-2286 -2321 0
-2286 -2322 0
-2286 -2323 0
-2286 -2324 0
-2286 -2325 0
-2286 -2326 0
-2286 -2327 0
-2286 -2328 0
-2286 -2329 0
-2286 -2330 0
-2286 -2331 0
-2286 -2332 0
-2286 -2333 0
-2286 -2334 0
-2286 -2335 0
-2286 -2336 0
-2286 -2337 0
-2286 -2338 0
-2286 -2339 0
-2286 -2340 0
-2286 -2341 0
-2287 -2288 0
-2287 -2289 0
-2287 -2290 0
-2287 -2291 0
-2287 -2292 0
-2287 -2293 0
-2287 -2294 0
-2287 -2295 0
-2287 -2296 0
-2287 -2297 0
-2287 -2298 0
-2287 -2299 0
-2287 -2300 0
-2287 -2301 0
-2287 -2302 0
-2287 -2303 0
-2287 -2304 0
-2287 -2305 0
-2287 -2306 0
-2287 -2307 0
-2287 -2308 0
-2287 -2309 0
-2287 -2310 0
-2287 -2311 0
-2287 -2312 0
-2287 -2313 0
-2287 -2314 0
-2287 -2315 0
-2287 -2316 0
-2287 -2317 0
-2287 -2318 0
-2287 -2319 0
-2287 -2320 0
-2287 -2321 0
-2287 -2322 0
-2287 -2323 0
-2287 -2324 0
-2287 -2325 0
-2287 -2326 0
-2287 -2327 0
-2287 -2328 0
-2287 -2329 0
-2287 -2330 0
-2287 -2331 0
-2287 -2332 0
-2287 -2333 0
-2287 -2334 0
-2287 -2335 0
-2287 -2336 0
-2287 -2337 0
-2287 -2338 0
-2287 -2339 0
-2287 -2340 0
-2287 -2341 0
-2288 -2289 0
-2288 -2290 0
-2288 -2291 0
-2288 -2292 0
-2288 -2293 0
-2288 -2294 0
-2288 -2295 0
-2288 -2296 0
-2288 -2297 0
-2288 -2298 0
-2288 -2299 0
-2288 -2300 0
-2288 -2301 0
-2288 -2302 0
-2288 -2303 0
-2288 -2304 0
-2288 -2305 0
-2288 -2306 0
-2288 -2307 0
-2288 -2308 0
-2288 -2309 0
-2288 -2310 0
-2288 -2311 0
-2288 -2312 0
-2288 -2313 0
-2288 -2314 0
-2288 -2315 0
-2288 -2316 0
-2288 -2317 0
-2288 -2318 0
-2288 -2319 0
-2288 -2320 0
-2288 -2321 0
-2288 -2322 0
-2288 -2323 0
-2288 -2324 0
-2288 -2325 0
-2288 -2326 0
-2288 -2327 0
-2288 -2328 0
-2288 -2329 0
-2288 -2330 0
-2288 -2331 0
-2288 -2332 0
-2288 -2333 0
-2288 -2334 0
-2288 -2335 0
-2288 -2336 0
-2288 -2337 0
-2288 -2338 0
-2288 -2339 0
-2288 -2340 0
-2288 -2341 0
-2289 -2290 0
-2289 -2291 0
-2289 -2292 0
-2289 -2293 0
-2289 -2294 0
-2289 -2295 0
-2289 -2296 0
-2289 -2297 0
-2289 -2298 0
-2289 -2299 0
-2289 -2300 0
-2289 -2301 0
-2289 -2302 0
-2289 -2303 0
-2289 -2304 0
-2289 -2305 0
-2289 -2306 0
-2289 -2307 0
-2289 -2308 0
-2289 -2309 0
-2289 -2310 0
-2289 -2311 0
-2289 -2312 0
-2289 -2313 0
-2289 -2314 0
-2289 -2315 0
-2289 -2316 0
-2289 -2317 0
-2289 -2318 0
-2289 -2319 0
-2289 -2320 0
-2289 -2321 0
-2289 -2322 0
-2289 -2323 0
-2289 -2324 0
-2289 -2325 0
-2289 -2326 0
-2289 -2327 0
-2289 -2328 0
-2289 -2329 0
-2289 -2330 0
-2289 -2331 0
-2289 -2332 0
-2289 -2333 0
-2289 -2334 0
-2289 -2335 0
-2289 -2336 0
-2289 -2337 0
-2289 -2338 0
-2289 -2339 0
-2289 -2340 0
-2289 -2341 0
-2290 -2291 0
-2290 -2292 0
-2290 -2293 0
-2290 -2294 0
-2290 -2295 0
-2290 -2296 0
-2290 -2297 0
-2290 -2298 0
-2290 -2299 0
-2290 -2300 0
-2290 -2301 0
-2290 -2302 0
-2290 -2303 0
-2290 -2304 0
-2290 -2305 0
-2290 -2306 0
-2290 -2307 0
-2290 -2308 0
-2290 -2309 0
-2290 -2310 0
-2290 -2311 0
-2290 -2312 0
-2290 -2313 0
-2290 -2314 0
-2290 -2315 0
-2290 -2316 0
-2290 -2317 0
-2290 -2318 0
-2290 -2319 0
-2290 -2320 0
-2290 -2321 0
-2290 -2322 0
-2290 -2323 0
-2290 -2324 0
-2290 -2325 0
-2290 -2326 0
-2290 -2327 0
-2290 -2328 0
-2290 -2329 0
-2290 -2330 0
-2290 -2331 0
-2290 -2332 0
-2290 -2333 0
-2290 -2334 0
-2290 -2335 0
-2290 -2336 0
-2290 -2337 0
-2290 -2338 0
-2290 -2339 0
-2290 -2340 0
-2290 -2341 0
-2291 -2292 0
-2291 -2293 0
-2291 -2294 0
-2291 -2295 0
-2291 -2296 0
-2291 -2297 0
-2291 -2298 0
-2291 -2299 0
-2291 -2300 0
-2291 -2301 0
-2291 -2302 0
-2291 -2303 0
-2291 -2304 0
-2291 -2305 0
-2291 -2306 0
-2291 -2307 0
-2291 -2308 0
-2291 -2309 0
-2291 -2310 0
-2291 -2311 0
-2291 -2312 0
-2291 -2313 0
-2291 -2314 0
-2291 -2315 0
-2291 -2316 0
-2291 -2317 0
-2291 -2318 0
-2291 -2319 0
-2291 -2320 0
-2291 -2321 0
-2291 -2322 0
-2291 -2323 0
-2291 -2324 0
-2291 -2325 0
-2291 -2326 0
-2291 -2327 0
-2291 -2328 0
-2291 -2329 0
-2291 -2330 0
-2291 -2331 0
-2291 -2332 0
-2291 -2333 0
-2291 -2334 0
-2291 -2335 0
-2291 -2336 0
-2291 -2337 0
-2291 -2338 0
-2291 -2339 0
-2291 -2340 0
-2291 -2341 0
-2292 -2293 0
-2292 -2294 0
-2292 -2295 0
-2292 -2296 0
-2292 -2297 0
-2292 -2298 0
-2292 -2299 0
-2292 -2300 0
-2292 -2301 0
-2292 -2302 0
-2292 -2303 0
-2292 -2304 0
-2292 -2305 0
-2292 -2306 0
-2292 -2307 0
-2292 -2308 0
-2292 -2309 0
-2292 -2310 0
-2292 -2311 0
-2292 -2312 0
-2292 -2313 0
-2292 -2314 0
-2292 -2315 0
-2292 -2316 0
-2292 -2317 0
-2292 -2318 0
-2292 -2319 0
-2292 -2320 0
-2292 -2321 0
-2292 -2322 0
-2292 -2323 0
-2292 -2324 0
-2292 -2325 0
-2292 -2326 0
-2292 -2327 0
-2292 -2328 0
-2292 -2329 0
-2292 -2330 0
-2292 -2331 0
-2292 -2332 0
-2292 -2333 0
-2292 -2334 0
-2292 -2335 0
-2292 -2336 0
-2292 -2337 0
-2292 -2338 0
-2292 -2339 0
-2292 -2340 0
-2292 -2341 0
-2293 -2294 0
-2293 -2295 0
-2293 -2296 0
-2293 -2297 0
-2293 -2298 0
-2293 -2299 0
-2293 -2300 0
-2293 -2301 0
-2293 -2302 0
-2293 -2303 0
-2293 -2304 0
-2293 -2305 0
-2293 -2306 0
-2293 -2307 0
-2293 -2308 0
-2293 -2309 0
-2293 -2310 0
-2293 -2311 0
-2293 -2312 0
-2293 -2313 0
-2293 -2314 0
-2293 -2315 0
-2293 -2316 0
-2293 -2317 0
-2293 -2318 0
-2293 -2319 0
-2293 -2320 0
-2293 -2321 0
-2293 -2322 0
-2293 -2323 0
-2293 -2324 0
-2293 -2325 0
-2293 -2326 0
-2293 -2327 0
-2293 -2328 0
-2293 -2329 0
-2293 -2330 0
-2293 -2331 0
-2293 -2332 0
-2293 -2333 0
-2293 -2334 0
-2293 -2335 0
-2293 -2336 0
-2293 -2337 0
-2293 -2338 0
-2293 -2339 0
-2293 -2340 0
-2293 -2341 0
-2294 -2295 0
-2294 -2296 0
-2294 -2297 0
-2294 -2298 0
-2294 -2299 0
-2294 -2300 0
-2294 -2301 0
-2294 -2302 0
-2294 -2303 0
-2294 -2304 0
-2294 -2305 0
-2294 -2306 0
-2294 -2307 0
-2294 -2308 0
-2294 -2309 0
-2294 -2310 0
-2294 -2311 0
-2294 -2312 0
-2294 -2313 0
-2294 -2314 0
-2294 -2315 0
-2294 -2316 0
-2294 -2317 0
-2294 -2318 0
-2294 -2319 0
-2294 -2320 0
-2294 -2321 0
-2294 -2322 0
-2294 -2323 0
-2294 -2324 0
-2294 -2325 0
-2294 -2326 0
-2294 -2327 0
-2294 -2328 0
-2294 -2329 0
-2294 -2330 0
-2294 -2331 0
-2294 -2332 0
-2294 -2333 0
-2294 -2334 0
-2294 -2335 0
-2294 -2336 0
-2294 -2337 0
-2294 -2338 0
-2294 -2339 0
-2294 -2340 0
-2294 -2341 0
-2295 -2296 0
-2295 -2297 0
-2295 -2298 0
-2295 -2299 0
-2295 -2300 0
-2295 -2301 0
-2295 -2302 0
-2295 -2303 0
-2295 -2304 0
-2295 -2305 0
-2295 -2306 0
-2295 -2307 0
-2295 -2308 0
-2295 -2309 0
-2295 -2310 0
-2295 -2311 0
-2295 -2312 0
-2295 -2313 0
-2295 -2314 0
-2295 -2315 0
-2295 -2316 0
-2295 -2317 0
-2295 -2318 0
-2295 -2319 0
-2295 -2320 0
-2295 -2321 0
-2295 -2322 0
-2295 -2323 0
-2295 -2324 0
-2295 -2325 0
-2295 -2326 0
-2295 -2327 0
-2295 -2328 0
-2295 -2329 0
-2295 -2330 0
-2295 -2331 0
-2295 -2332 0
-2295 -2333 0
-2295 -2334 0
-2295 -2335 0
-2295 -2336 0
-2295 -2337 0
-2295 -2338 0
-2295 -2339 0
-2295 -2340 0
-2295 -2341 0
-2296 -2297 0
-2296 -2298 0
-2296 -2299 0
-2296 -2300 0
-2296 -2301 0
-2296 -2302 0
-2296 -2303 0
-2296 -2304 0
-2296 -2305 0
-2296 -2306 0
-2296 -2307 0
-2296 -2308 0
-2296 -2309 0
-2296 -2310 0
-2296 -2311 0
-2296 -2312 0
-2296 -2313 0
-2296 -2314 0
-2296 -2315 0
-2296 -2316 0
-2296 -2317 0
-2296 -2318 0
-2296 -2319 0
-2296 -2320 0
-2296 -2321 0
-2296 -2322 0
-2296 -2323 0
-2296 -2324 0
-2296 -2325 0
-2296 -2326 0
-2296 -2327 0
-2296 -2328 0
-2296 -2329 0
-2296 -2330 0
-2296 -2331 0
-2296 -2332 0
-2296 -2333 0
-2296 -2334 0
-2296 -2335 0
-2296 -2336 0
-2296 -2337 0
-2296 -2338 0
-2296 -2339 0
-2296 -2340 0
-2296 -2341 0
-2297 -2298 0
-2297 -2299 0
-2297 -2300 0
-2297 -2301 0
-2297 -2302 0
-2297 -2303 0
-2297 -2304 0
-2297 -2305 0
-2297 -2306 0
-2297 -2307 0
-2297 -2308 0
-2297 -2309 0
-2297 -2310 0
-2297 -2311 0
-2297 -2312 0
-2297 -2313 0
-2297 -2314 0
-2297 -2315 0
-2297 -2316 0
-2297 -2317 0
-2297 -2318 0
-2297 -2319 0
-2297 -2320 0
-2297 -2321 0
-2297 -2322 0
-2297 -2323 0
-2297 -2324 0
-2297 -2325 0
-2297 -2326 0
-2297 -2327 0
-2297 -2328 0
-2297 -2329 0
-2297 -2330 0
-2297 -2331 0
-2297 -2332 0
-2297 -2333 0
-2297 -2334 0
-2297 -2335 0
-2297 -2336 0
-2297 -2337 0
-2297 -2338 0
-2297 -2339 0
-2297 -2340 0
-2297 -2341 0
-2298 -2299 0
-2298 -2300 0
-2298 -2301 0
-2298 -2302 0
-2298 -2303 0
-2298 -2304 0
-2298 -2305 0
-2298 -2306 0
-2298 -2307 0
-2298 -2308 0
-2298 -2309 0
-2298 -2310 0
-2298 -2311 0
-2298 -2312 0
-2298 -2313 0
-2298 -2314 0
-2298 -2315 0
-2298 -2316 0
-2298 -2317 0
-2298 -2318 0
-2298 -2319 0
-2298 -2320 0
-2298 -2321 0
-2298 -2322 0
-2298 -2323 0
-2298 -2324 0
-2298 -2325 0
-2298 -2326 0
-2298 -2327 0
-2298 -2328 0
-2298 -2329 0
-2298 -2330 0
-2298 -2331 0
-2298 -2332 0
-2298 -2333 0
-2298 -2334 0
-2298 -2335 0
-2298 -2336 0
-2298 -2337 0
-2298 -2338 0
-2298 -2339 0
-2298 -2340 0
-2298 -2341 0
-2299 -2300 0
-2299 -2301 0
-2299 -2302 0
-2299 -2303 0
-2299 -2304 0
-2299 -2305 0
-2299 -2306 0
-2299 -2307 0
-2299 -2308 0
-2299 -2309 0
-2299 -2310 0
-2299 -2311 0
-2299 -2312 0
-2299 -2313 0
-2299 -2314 0
-2299 -2315 0
-2299 -2316 0
-2299 -2317 0
-2299 -2318 0
-2299 -2319 0
-2299 -2320 0
-2299 -2321 0
-2299 -2322 0
-2299 -2323 0
-2299 -2324 0
-2299 -2325 0
-2299 -2326 0
-2299 -2327 0
-2299 -2328 0
-2299 -2329 0
-2299 -2330 0
-2299 -2331 0
-2299 -2332 0
-2299 -2333 0
-2299 -2334 0
-2299 -2335 0
-2299 -2336 0
-2299 -2337 0
-2299 -2338 0
-2299 -2339 0
-2299 -2340 0
-2299 -2341 0
-2300 -2301 0
-2300 -2302 0
-2300 -2303 0
-2300 -2304 0
-2300 -2305 0
-2300 -2306 0
-2300 -2307 0
-2300 -2308 0
-2300 -2309 0
-2300 -2310 0
-2300 -2311 0
-2300 -2312 0
-2300 -2313 0
-2300 -2314 0
-2300 -2315 0
-2300 -2316 0
-2300 -2317 0
-2300 -2318 0
-2300 -2319 0
-2300 -2320 0
-2300 -2321 0
-2300 -2322 0
-2300 -2323 0
-2300 -2324 0
-2300 -2325 0
-2300 -2326 0
-2300 -2327 0
-2300 -2328 0
-2300 -2329 0
-2300 -2330 0
-2300 -2331 0
-2300 -2332 0
-2300 -2333 0
-2300 -2334 0
-2300 -2335 0
-2300 -2336 0
-2300 -2337 0
-2300 -2338 0
-2300 -2339 0
-2300 -2340 0
-2300 -2341 0
-2301 -2302 0
-2301 -2303 0
-2301 -2304 0
-2301 -2305 0
-2301 -2306 0
-2301 -2307 0
-2301 -2308 0
-2301 -2309 0
-2301 -2310 0
-2301 -2311 0
-2301 -2312 0
-2301 -2313 0
-2301 -2314 0
-2301 -2315 0
-2301 -2316 0
-2301 -2317 0
-2301 -2318 0
-2301 -2319 0
-2301 -2320 0
-2301 -2321 0
-2301 -2322 0
-2301 -2323 0
-2301 -2324 0
-2301 -2325 0
-2301 -2326 0
-2301 -2327 0
-2301 -2328 0
-2301 -2329 0
-2301 -2330 0
-2301 -2331 0
-2301 -2332 0
-2301 -2333 0
-2301 -2334 0
-2301 -2335 0
-2301 -2336 0
-2301 -2337 0
-2301 -2338 0
-2301 -2339 0
-2301 -2340 0
-2301 -2341 0
-2302 -2303 0
-2302 -2304 0
-2302 -2305 0
-2302 -2306 0
-2302 -2307 0
-2302 -2308 0
-2302 -2309 0
-2302 -2310 0
-2302 -2311 0
-2302 -2312 0
-2302 -2313 0
-2302 -2314 0
-2302 -2315 0
-2302 -2316 0
-2302 -2317 0
-2302 -2318 0
-2302 -2319 0
-2302 -2320 0
-2302 -2321 0
-2302 -2322 0
-2302 -2323 0
-2302 -2324 0
-2302 -2325 0
-2302 -2326 0
-2302 -2327 0
-2302 -2328 0
-2302 -2329 0
-2302 -2330 0
-2302 -2331 0
-2302 -2332 0
-2302 -2333 0
-2302 -2334 0
-2302 -2335 0
-2302 -2336 0
-2302 -2337 0
-2302 -2338 0
-2302 -2339 0
-2302 -2340 0
-2302 -2341 0
-2303 -2304 0
-2303 -2305 0
-2303 -2306 0
-2303 -2307 0
-2303 -2308 0
-2303 -2309 0
-2303 -2310 0
-2303 -2311 0
-2303 -2312 0
-2303 -2313 0
-2303 -2314 0
-2303 -2315 0
-2303 -2316 0
-2303 -2317 0
-2303 -2318 0
-2303 -2319 0
-2303 -2320 0
-2303 -2321 0
-2303 -2322 0
-2303 -2323 0
-2303 -2324 0
-2303 -2325 0
-2303 -2326 0
-2303 -2327 0
-2303 -2328 0
-2303 -2329 0
-2303 -2330 0
-2303 -2331 0
-2303 -2332 0
-2303 -2333 0
-2303 -2334 0
-2303 -2335 0
-2303 -2336 0
-2303 -2337 0
-2303 -2338 0
-2303 -2339 0
-2303 -2340 0
-2303 -2341 0
-2304 -2305 0
-2304 -2306 0
-2304 -2307 0
-2304 -2308 0
-2304 -2309 0
-2304 -2310 0
-2304 -2311 0
-2304 -2312 0
-2304 -2313 0
-2304 -2314 0
-2304 -2315 0
-2304 -2316 0
-2304 -2317 0
-2304 -2318 0
-2304 -2319 0
-2304 -2320 0
-2304 -2321 0
-2304 -2322 0
-2304 -2323 0
-2304 -2324 0
-2304 -2325 0
-2304 -2326 0
-2304 -2327 0
-2304 -2328 0
-2304 -2329 0
-2304 -2330 0
-2304 -2331 0
-2304 -2332 0
-2304 -2333 0
-2304 -2334 0
-2304 -2335 0
-2304 -2336 0
-2304 -2337 0
-2304 -2338 0
-2304 -2339 0
-2304 -2340 0
-2304 -2341 0
-2305 -2306 0
-2305 -2307 0
-2305 -2308 0
-2305 -2309 0
-2305 -2310 0
-2305 -2311 0
-2305 -2312 0
-2305 -2313 0
-2305 -2314 0
-2305 -2315 0
-2305 -2316 0
-2305 -2317 0
-2305 -2318 0
-2305 -2319 0
-2305 -2320 0
-2305 -2321 0
-2305 -2322 0
-2305 -2323 0
-2305 -2324 0
-2305 -2325 0
-2305 -2326 0
-2305 -2327 0
-2305 -2328 0
-2305 -2329 0
-2305 -2330 0
-2305 -2331 0
-2305 -2332 0
-2305 -2333 0
-2305 -2334 0
-2305 -2335 0
-2305 -2336 0
-2305 -2337 0
-2305 -2338 0
-2305 -2339 0
-2305 -2340 0
-2305 -2341 0
-2306 -2307 0
-2306 -2308 0
-2306 -2309 0
-2306 -2310 0
-2306 -2311 0
-2306 -2312 0
-2306 -2313 0
-2306 -2314 0
-2306 -2315 0
-2306 -2316 0
-2306 -2317 0
-2306 -2318 0
-2306 -2319 0
-2306 -2320 0
-2306 -2321 0
-2306 -2322 0
-2306 -2323 0
-2306 -2324 0
-2306 -2325 0
-2306 -2326 0
-2306 -2327 0
-2306 -2328 0
-2306 -2329 0
-2306 -2330 0
-2306 -2331 0
-2306 -2332 0
-2306 -2333 0
-2306 -2334 0
-2306 -2335 0
-2306 -2336 0
-2306 -2337 0
-2306 -2338 0
-2306 -2339 0
-2306 -2340 0
-2306 -2341 0
-2307 -2308 0
-2307 -2309 0
-2307 -2310 0
-2307 -2311 0
-2307 -2312 0
-2307 -2313 0
-2307 -2314 0
-2307 -2315 0
-2307 -2316 0
-2307 -2317 0
-2307 -2318 0
-2307 -2319 0
-2307 -2320 0
-2307 -2321 0
-2307 -2322 0
-2307 -2323 0
-2307 -2324 0
-2307 -2325 0
-2307 -2326 0
-2307 -2327 0
-2307 -2328 0
-2307 -2329 0
-2307 -2330 0
-2307 -2331 0
-2307 -2332 0
-2307 -2333 0
-2307 -2334 0
-2307 -2335 0
-2307 -2336 0
-2307 -2337 0
-2307 -2338 0
-2307 -2339 0
-2307 -2340 0
-2307 -2341 0
-2308 -2309 0
-2308 -2310 0
-2308 -2311 0
-2308 -2312 0
-2308 -2313 0
-2308 -2314 0
-2308 -2315 0
-2308 -2316 0
-2308 -2317 0
-2308 -2318 0
-2308 -2319 0
-2308 -2320 0
-2308 -2321 0
-2308 -2322 0
-2308 -2323 0
-2308 -2324 0
-2308 -2325 0
-2308 -2326 0
-2308 -2327 0
-2308 -2328 0
-2308 -2329 0
-2308 -2330 0
-2308 -2331 0
-2308 -2332 0
-2308 -2333 0
-2308 -2334 0
-2308 -2335 0
-2308 -2336 0
-2308 -2337 0
-2308 -2338 0
-2308 -2339 0
-2308 -2340 0
-2308 -2341 0
-2309 -2310 0
-2309 -2311 0
-2309 -2312 0
-2309 -2313 0
-2309 -2314 0
-2309 -2315 0
-2309 -2316 0
-2309 -2317 0
-2309 -2318 0
-2309 -2319 0
-2309 -2320 0
-2309 -2321 0
-2309 -2322 0
-2309 -2323 0
-2309 -2324 0
-2309 -2325 0
-2309 -2326 0
-2309 -2327 0
-2309 -2328 0
-2309 -2329 0
-2309 -2330 0
-2309 -2331 0
-2309 -2332 0
-2309 -2333 0
-2309 -2334 0
-2309 -2335 0
-2309 -2336 0
-2309 -2337 0
-2309 -2338 0
-2309 -2339 0
-2309 -2340 0
-2309 -2341 0
-2310 -2311 0
-2310 -2312 0
-2310 -2313 0
-2310 -2314 0
-2310 -2315 0
-2310 -2316 0
-2310 -2317 0
-2310 -2318 0
-2310 -2319 0
-2310 -2320 0
-2310 -2321 0
-2310 -2322 0
-2310 -2323 0
-2310 -2324 0
-2310 -2325 0
-2310 -2326 0
-2310 -2327 0
-2310 -2328 0
-2310 -2329 0
-2310 -2330 0
-2310 -2331 0
-2310 -2332 0
-2310 -2333 0
-2310 -2334 0
-2310 -2335 0
-2310 -2336 0
-2310 -2337 0
-2310 -2338 0
-2310 -2339 0
-2310 -2340 0
-2310 -2341 0
-2311 -2312 0
-2311 -2313 0
-2311 -2314 0
-2311 -2315 0
-2311 -2316 0
-2311 -2317 0
-2311 -2318 0
-2311 -2319 0
-2311 -2320 0
-2311 -2321 0
-2311 -2322 0
-2311 -2323 0
-2311 -2324 0
-2311 -2325 0
-2311 -2326 0
-2311 -2327 0
-2311 -2328 0
-2311 -2329 0
-2311 -2330 0
-2311 -2331 0
-2311 -2332 0
-2311 -2333 0
-2311 -2334 0
-2311 -2335 0
-2311 -2336 0
-2311 -2337 0
-2311 -2338 0
-2311 -2339 0
-2311 -2340 0
-2311 -2341 0
-2312 -2313 0
-2312 -2314 0
-2312 -2315 0
-2312 -2316 0
-2312 -2317 0
-2312 -2318 0
-2312 -2319 0
-2312 -2320 0
-2312 -2321 0
-2312 -2322 0
-2312 -2323 0
-2312 -2324 0
-2312 -2325 0
-2312 -2326 0
-2312 -2327 0
-2312 -2328 0
-2312 -2329 0
-2312 -2330 0
-2312 -2331 0
-2312 -2332 0
-2312 -2333 0
-2312 -2334 0
-2312 -2335 0
-2312 -2336 0
-2312 -2337 0
-2312 -2338 0
-2312 -2339 0
-2312 -2340 0
-2312 -2341 0
-2313 -2314 0
-2313 -2315 0
-2313 -2316 0
-2313 -2317 0
-2313 -2318 0
-2313 -2319 0
-2313 -2320 0
-2313 -2321 0
-2313 -2322 0
-2313 -2323 0
-2313 -2324 0
-2313 -2325 0
-2313 -2326 0
-2313 -2327 0
-2313 -2328 0
-2313 -2329 0
-2313 -2330 0
-2313 -2331 0
-2313 -2332 0
-2313 -2333 0
-2313 -2334 0
-2313 -2335 0
-2313 -2336 0
-2313 -2337 0
-2313 -2338 0
-2313 -2339 0
-2313 -2340 0
-2313 -2341 0
-2314 -2315 0
-2314 -2316 0
-2314 -2317 0
-2314 -2318 0
-2314 -2319 0
-2314 -2320 0
-2314 -2321 0
-2314 -2322 0
-2314 -2323 0
-2314 -2324 0
-2314 -2325 0
-2314 -2326 0
-2314 -2327 0
-2314 -2328 0
-2314 -2329 0
-2314 -2330 0
-2314 -2331 0
-2314 -2332 0
-2314 -2333 0
-2314 -2334 0
-2314 -2335 0
-2314 -2336 0
-2314 -2337 0
-2314 -2338 0
-2314 -2339 0
-2314 -2340 0
-2314 -2341 0
-2315 -2316 0
-2315 -2317 0
-2315 -2318 0
-2315 -2319 0
-2315 -2320 0
-2315 -2321 0
-2315 -2322 0
-2315 -2323 0
-2315 -2324 0
-2315 -2325 0
-2315 -2326 0
-2315 -2327 0
-2315 -2328 0
-2315 -2329 0
-2315 -2330 0
-2315 -2331 0
-2315 -2332 0
-2315 -2333 0
-2315 -2334 0
-2315 -2335 0
-2315 -2336 0
-2315 -2337 0
-2315 -2338 0
-2315 -2339 0
-2315 -2340 0
-2315 -2341 0
-2316 -2317 0
-2316 -2318 0
-2316 -2319 0
-2316 -2320 0
-2316 -2321 0
-2316 -2322 0
-2316 -2323 0
-2316 -2324 0
-2316 -2325 0
-2316 -2326 0
-2316 -2327 0
-2316 -2328 0
-2316 -2329 0
-2316 -2330 0
-2316 -2331 0
-2316 -2332 0
-2316 -2333 0
-2316 -2334 0
-2316 -2335 0
-2316 -2336 0
-2316 -2337 0
-2316 -2338 0
-2316 -2339 0
-2316 -2340 0
-2316 -2341 0
-2317 -2318 0
-2317 -2319 0
-2317 -2320 0
-2317 -2321 0
-2317 -2322 0
-2317 -2323 0
-2317 -2324 0
-2317 -2325 0
-2317 -2326 0
-2317 -2327 0
-2317 -2328 0
-2317 -2329 0
-2317 -2330 0
-2317 -2331 0
-2317 -2332 0
-2317 -2333 0
-2317 -2334 0
-2317 -2335 0
-2317 -2336 0
-2317 -2337 0
-2317 -2338 0
-2317 -2339 0
-2317 -2340 0
-2317 -2341 0
-2318 -2319 0
-2318 -2320 0
-2318 -2321 0
-2318 -2322 0
-2318 -2323 0
-2318 -2324 0
-2318 -2325 0
-2318 -2326 0
-2318 -2327 0
-2318 -2328 0
-2318 -2329 0
-2318 -2330 0
-2318 -2331 0
-2318 -2332 0
-2318 -2333 0
-2318 -2334 0
-2318 -2335 0
-2318 -2336 0
-2318 -2337 0
-2318 -2338 0
-2318 -2339 0
-2318 -2340 0
-2318 -2341 0
-2319 -2320 0
-2319 -2321 0
-2319 -2322 0
-2319 -2323 0
-2319 -2324 0
-2319 -2325 0
-2319 -2326 0
-2319 -2327 0
-2319 -2328 0
-2319 -2329 0
-2319 -2330 0
-2319 -2331 0
-2319 -2332 0
-2319 -2333 0
-2319 -2334 0
-2319 -2335 0
-2319 -2336 0
-2319 -2337 0
-2319 -2338 0
-2319 -2339 0
-2319 -2340 0
-2319 -2341 0
-2320 -2321 0
-2320 -2322 0
-2320 -2323 0
-2320 -2324 0
-2320 -2325 0
-2320 -2326 0
-2320 -2327 0
-2320 -2328 0
-2320 -2329 0
-2320 -2330 0
-2320 -2331 0
-2320 -2332 0
-2320 -2333 0
-2320 -2334 0
-2320 -2335 0
-2320 -2336 0
-2320 -2337 0
-2320 -2338 0
-2320 -2339 0
-2320 -2340 0
-2320 -2341 0
-2321 -2322 0
-2321 -2323 0
-2321 -2324 0
-2321 -2325 0
-2321 -2326 0
-2321 -2327 0
-2321 -2328 0
-2321 -2329 0
-2321 -2330 0
-2321 -2331 0
-2321 -2332 0
-2321 -2333 0
-2321 -2334 0
-2321 -2335 0
-2321 -2336 0
-2321 -2337 0
-2321 -2338 0
-2321 -2339 0
-2321 -2340 0
-2321 -2341 0
-2322 -2323 0
-2322 -2324 0
-2322 -2325 0
-2322 -2326 0
-2322 -2327 0
-2322 -2328 0
-2322 -2329 0
-2322 -2330 0
-2322 -2331 0
-2322 -2332 0
-2322 -2333 0
-2322 -2334 0
-2322 -2335 0
-2322 -2336 0
-2322 -2337 0
-2322 -2338 0
-2322 -2339 0
-2322 -2340 0
-2322 -2341 0
-2323 -2324 0
-2323 -2325 0
-2323 -2326 0
-2323 -2327 0
-2323 -2328 0
-2323 -2329 0
-2323 -2330 0
-2323 -2331 0
-2323 -2332 0
-2323 -2333 0
-2323 -2334 0
-2323 -2335 0
-2323 -2336 0
-2323 -2337 0
-2323 -2338 0
-2323 -2339 0
-2323 -2340 0
-2323 -2341 0
-2324 -2325 0
-2324 -2326 0
-2324 -2327 0
-2324 -2328 0
-2324 -2329 0
-2324 -2330 0
-2324 -2331 0
-2324 -2332 0
-2324 -2333 0
-2324 -2334 0
-2324 -2335 0
-2324 -2336 0
-2324 -2337 0
-2324 -2338 0
-2324 -2339 0
-2324 -2340 0
-2324 -2341 0
-2325 -2326 0
-2325 -2327 0
-2325 -2328 0
-2325 -2329 0
-2325 -2330 0
-2325 -2331 0
-2325 -2332 0
-2325 -2333 0
-2325 -2334 0
-2325 -2335 0
-2325 -2336 0
-2325 -2337 0
-2325 -2338 0
-2325 -2339 0
-2325 -2340 0
-2325 -2341 0
-2326 -2327 0
-2326 -2328 0
-2326 -2329 0
-2326 -2330 0
-2326 -2331 0
-2326 -2332 0
-2326 -2333 0
-2326 -2334 0
-2326 -2335 0
-2326 -2336 0
-2326 -2337 0
-2326 -2338 0
-2326 -2339 0
-2326 -2340 0
-2326 -2341 0
-2327 -2328 0
-2327 -2329 0
-2327 -2330 0
-2327 -2331 0
-2327 -2332 0
-2327 -2333 0
-2327 -2334 0
-2327 -2335 0
-2327 -2336 0
-2327 -2337 0
-2327 -2338 0
-2327 -2339 0
-2327 -2340 0
-2327 -2341 0
-2328 -2329 0
-2328 -2330 0
-2328 -2331 0
-2328 -2332 0
-2328 -2333 0
-2328 -2334 0
-2328 -2335 0
-2328 -2336 0
-2328 -2337 0
-2328 -2338 0
-2328 -2339 0
-2328 -2340 0
-2328 -2341 0
-2329 -2330 0
-2329 -2331 0
-2329 -2332 0
-2329 -2333 0
-2329 -2334 0
-2329 -2335 0
-2329 -2336 0
-2329 -2337 0
-2329 -2338 0
-2329 -2339 0
-2329 -2340 0
-2329 -2341 0
-2330 -2331 0
-2330 -2332 0
-2330 -2333 0
-2330 -2334 0
-2330 -2335 0
-2330 -2336 0
-2330 -2337 0
-2330 -2338 0
-2330 -2339 0
-2330 -2340 0
-2330 -2341 0
-2331 -2332 0
-2331 -2333 0
-2331 -2334 0
-2331 -2335 0
-2331 -2336 0
-2331 -2337 0
-2331 -2338 0
-2331 -2339 0
-2331 -2340 0
-2331 -2341 0
-2332 -2333 0
-2332 -2334 0
-2332 -2335 0
-2332 -2336 0
-2332 -2337 0
-2332 -2338 0
-2332 -2339 0
-2332 -2340 0
-2332 -2341 0
-2333 -2334 0
-2333 -2335 0
-2333 -2336 0
-2333 -2337 0
-2333 -2338 0
-2333 -2339 0
-2333 -2340 0
-2333 -2341 0
-2334 -2335 0
-2334 -2336 0
-2334 -2337 0
-2334 -2338 0
-2334 -2339 0
-2334 -2340 0
-2334 -2341 0
-2335 -2336 0
-2335 -2337 0
-2335 -2338 0
-2335 -2339 0
-2335 -2340 0
-2335 -2341 0
-2336 -2337 0
-2336 -2338 0
-2336 -2339 0
-2336 -2340 0
-2336 -2341 0
-2337 -2338 0
-2337 -2339 0
-2337 -2340 0
-2337 -2341 0
-2338 -2339 0
-2338 -2340 0
-2338 -2341 0
-2339 -2340 0
-2339 -2341 0
-2340 -2341 0
-2211 75 2277 0
-2211 -75 2276 0
-2212 75 2278 0
-2212 -75 2277 0
-2213 75 2279 0
-2213 -75 2278 0
-2214 75 2280 0
-2214 -75 2279 0
-2215 75 2281 0
-2215 -75 2280 0
-2216 75 2282 0
-2216 -75 2281 0
-2217 75 2283 0
-2217 -75 2282 0
-2218 75 2284 0
-2218 -75 2283 0
-2219 75 2285 0
-2219 -75 2284 0
-2220 75 2286 0
-2220 -75 2285 0
-2221 75 2287 0
-2221 -75 2286 0
-2222 75 2288 0
-2222 -75 2287 0
-2223 75 2289 0
-2223 -75 2288 0
-2224 75 2290 0
-2224 -75 2289 0
-2225 75 2291 0
-2225 -75 2290 0
-2226 75 2292 0
-2226 -75 2291 0
-2227 75 2293 0
-2227 -75 2292 0
-2228 75 2294 0
-2228 -75 2293 0
-2229 75 2295 0
-2229 -75 2294 0
-2230 75 2296 0
-2230 -75 2295 0
-2231 75 2297 0
-2231 -75 2296 0
-2232 75 2298 0
-2232 -75 2297 0
-2233 75 2299 0
-2233 -75 2298 0
-2234 75 2300 0
-2234 -75 2299 0
-2235 75 2301 0
-2235 -75 2300 0
-2236 75 2302 0
-2236 -75 2301 0
-2237 75 2303 0
-2237 -75 2302 0
-2238 75 2304 0
-2238 -75 2303 0
-2239 75 2305 0
-2239 -75 2304 0
-2240 75 2306 0
-2240 -75 2305 0
-2241 75 2307 0
-2241 -75 2306 0
-2242 75 2308 0
-2242 -75 2307 0
-2243 75 2309 0
-2243 -75 2308 0
-2244 75 2310 0
-2244 -75 2309 0
-2245 75 2311 0
-2245 -75 2310 0
-2246 75 2312 0
-2246 -75 2311 0
-2247 75 2313 0
-2247 -75 2312 0
-2248 75 2314 0
-2248 -75 2313 0
-2249 75 2315 0
-2249 -75 2314 0
-2250 75 2316 0
-2250 -75 2315 0
-2251 75 2317 0
-2251 -75 2316 0
-2252 75 2318 0
-2252 -75 2317 0
-2253 75 2319 0
-2253 -75 2318 0
-2254 75 2320 0
-2254 -75 2319 0
-2255 75 2321 0
-2255 -75 2320 0
-2256 75 2322 0
-2256 -75 2321 0
-2257 75 2323 0
-2257 -75 2322 0
-2258 75 2324 0
-2258 -75 2323 0
-2259 75 2325 0
-2259 -75 2324 0
-2260 75 2326 0
-2260 -75 2325 0
-2261 75 2327 0
-2261 -75 2326 0
-2262 75 2328 0
-2262 -75 2327 0
-2263 75 2329 0
-2263 -75 2328 0
-2264 75 2330 0
-2264 -75 2329 0
-2265 75 2331 0
-2265 -75 2330 0
-2266 75 2332 0
-2266 -75 2331 0
-2267 75 2333 0
-2267 -75 2332 0
-2268 75 2334 0
-2268 -75 2333 0
-2269 75 2335 0
-2269 -75 2334 0
-2270 75 2336 0
-2270 -75 2335 0
-2271 75 2337 0
-2271 -75 2336 0
-2272 75 2338 0
-2272 -75 2337 0
-2273 75 2339 0
-2273 -75 2338 0
-2274 75 2340 0
-2274 -75 2339 0
-2275 75 2341 0
-2275 -75 2340 0
2342 2343 2344 2345 2346 2347 2348 2349 2350 2351 2352 2353 2354 2355 2356 2357 2358 2359 2360 2361 2362 2363 2364 2365 2366 2367 2368 2369 2370 2371 2372 2373 2374 2375 2376 2377 2378 2379 2380 2381 2382 2383 2384 2385 2386 2387 2388 2389 2390 2391 2392 2393 2394 2395 2396 2397 2398 2399 2400 2401 2402 2403 2404 2405 2406 2407 2408 0
-2342 -2343 0
-2342 -2344 0
-2342 -2345 0
-2342 -2346 0
-2342 -2347 0
-2342 -2348 0
-2342 -2349 0
-2342 -2350 0
-2342 -2351 0
-2342 -2352 0
-2342 -2353 0
-2342 -2354 0
-2342 -2355 0
-2342 -2356 0
-2342 -2357 0
-2342 -2358 0
-2342 -2359 0
-2342 -2360 0
-2342 -2361 0
-2342 -2362 0
-2342 -2363 0
-2342 -2364 0
-2342 -2365 0
-2342 -2366 0
-2342 -2367 0
-2342 -2368 0
-2342 -2369 0
-2342 -2370 0
-2342 -2371 0
-2342 -2372 0
-2342 -2373 0
-2342 -2374 0
-2342 -2375 0
-2342 -2376 0
-2342 -2377 0
-2342 -2378 0
-2342 -2379 0
-2342 -2380 0
-2342 -2381 0
-2342 -2382 0
-2342 -2383 0
-2342 -2384 0
-2342 -2385 0
-2342 -2386 0
-2342 -2387 0
-2342 -2388 0
-2342 -2389 0
-2342 -2390 0
-2342 -2391 0
-2342 -2392 0
-2342 -2393 0
-2342 -2394 0
-2342 -2395 0
-2342 -2396 0
-2342 -2397 0
-2342 -2398 0
-2342 -2399 0
-2342 -2400 0
-2342 -2401 0
-2342 -2402 0
-2342 -2403 0
-2342 -2404 0
-2342 -2405 0
-2342 -2406 0
-2342 -2407 0
-2342 -2408 0
-2343 -2344 0
-2343 -2345 0
-2343 -2346 0
-2343 -2347 0
-2343 -2348 0
-2343 -2349 0
-2343 -2350 0
-2343 -2351 0
-2343 -2352 0
-2343 -2353 0
-2343 -2354 0
-2343 -2355 0
-2343 -2356 0
-2343 -2357 0
-2343 -2358 0
-2343 -2359 0
-2343 -2360 0
-2343 -2361 0
-2343 -2362 0
-2343 -2363 0
-2343 -2364 0
-2343 -2365 0
-2343 -2366 0
-2343 -2367 0
-2343 -2368 0
-2343 -2369 0
-2343 -2370 0
-2343 -2371 0
-2343 -2372 0
-2343 -2373 0
-2343 -2374 0
-2343 -2375 0
-2343 -2376 0
-2343 -2377 0
-2343 -2378 0
-2343 -2379 0
-2343 -2380 0
-2343 -2381 0
-2343 -2382 0
-2343 -2383 0
-2343 -2384 0
-2343 -2385 0
-2343 -2386 0
-2343 -2387 0
-2343 -2388 0
-2343 -2389 0
-2343 -2390 0
-2343 -2391 0
-2343 -2392 0
-2343 -2393 0
-2343 -2394 0
-2343 -2395 0
-2343 -2396 0
-2343 -2397 0
-2343 -2398 0
-2343 -2399 0
-2343 -2400 0
-2343 -2401 0
-2343 -2402 0
-2343 -2403 0
-2343 -2404 0
-2343 -2405 0
-2343 -2406 0
-2343 -2407 0
-2343 -2408 0
-2344 -2345 0
-2344 -2346 0
-2344 -2347 0
-2344 -2348 0
-2344 -2349 0
-2344 -2350 0
-2344 -2351 0
-2344 -2352 0
-2344 -2353 0
-2344 -2354 0
-2344 -2355 0
-2344 -2356 0
-2344 -2357 0
-2344 -2358 0
-2344 -2359 0
-2344 -2360 0
-2344 -2361 0
-2344 -2362 0
-2344 -2363 0
-2344 -2364 0
-2344 -2365 0
-2344 -2366 0
-2344 -2367 0
-2344 -2368 0
-2344 -2369 0
-2344 -2370 0
-2344 -2371 0
-2344 -2372 0
-2344 -2373 0
-2344 -2374 0
-2344 -2375 0
-2344 -2376 0
-2344 -2377 0
-2344 -2378 0
-2344 -2379 0
-2344 -2380 0
-2344 -2381 0
-2344 -2382 0
-2344 -2383 0
-2344 -2384 0
-2344 -2385 0
-2344 -2386 0
-2344 -2387 0
-2344 -2388 0
-2344 -2389 0
-2344 -2390 0
-2344 -2391 0
-2344 -2392 0
-2344 -2393 0
-2344 -2394 0
-2344 -2395 0
-2344 -2396 0
-2344 -2397 0
-2344 -2398 0
-2344 -2399 0
-2344 -2400 0
-2344 -2401 0
-2344 -2402 0
-2344 -2403 0
-2344 -2404 0
-2344 -2405 0
-2344 -2406 0
-2344 -2407 0
-2344 -2408 0
-2345 -2346 0
-2345 -2347 0
-2345 -2348 0
-2345 -2349 0
-2345 -2350 0
-2345 -2351 0
-2345 -2352 0
-2345 -2353 0
-2345 -2354 0
-2345 -2355 0
-2345 -2356 0
-2345 -2357 0
-2345 -2358 0
-2345 -2359 0
-2345 -2360 0
-2345 -2361 0
-2345 -2362 0
-2345 -2363 0
-2345 -2364 0
-2345 -2365 0
-2345 -2366 0
-2345 -2367 0
-2345 -2368 0
-2345 -2369 0
-2345 -2370 0
-2345 -2371 0
-2345 -2372 0
-2345 -2373 0
-2345 -2374 0
-2345 -2375 0
-2345 -2376 0
-2345 -2377 0
-2345 -2378 0
-2345 -2379 0
-2345 -2380 0
-2345 -2381 0
-2345 -2382 0
-2345 -2383 0
-2345 -2384 0
-2345 -2385 0
-2345 -2386 0
-2345 -2387 0
-2345 -2388 0
-2345 -2389 0
-2345 -2390 0
-2345 -2391 0
-2345 -2392 0
-2345 -2393 0
-2345 -2394 0
-2345 -2395 0
-2345 -2396 0
-2345 -2397 0
-2345 -2398 0
-2345 -2399 0
-2345 -2400 0
-2345 -2401 0
-2345 -2402 0
-2345 -2403 0
-2345 -2404 0
-2345 -2405 0
-2345 -2406 0
-2345 -2407 0
-2345 -2408 0
-2346 -2347 0
-2346 -2348 0
-2346 -2349 0
-2346 -2350 0
-2346 -2351 0
-2346 -2352 0
-2346 -2353 0
-2346 -2354 0
-2346 -2355 0
-2346 -2356 0
-2346 -2357 0
-2346 -2358 0
-2346 -2359 0
-2346 -2360 0
-2346 -2361 0
-2346 -2362 0
-2346 -2363 0
-2346 -2364 0
-2346 -2365 0
-2346 -2366 0
-2346 -2367 0
-2346 -2368 0
-2346 -2369 0
-2346 -2370 0
-2346 -2371 0
-2346 -2372 0
-2346 -2373 0
-2346 -2374 0
-2346 -2375 0
-2346 -2376 0
-2346 -2377 0
-2346 -2378 0
-2346 -2379 0
-2346 -2380 0
-2346 -2381 0
-2346 -2382 0
-2346 -2383 0
-2346 -2384 0
-2346 -2385 0
-2346 -2386 0
-2346 -2387 0
-2346 -2388 0
-2346 -2389 0
-2346 -2390 0
-2346 -2391 0
-2346 -2392 0
-2346 -2393 0
-2346 -2394 0
-2346 -2395 0
-2346 -2396 0
-2346 -2397 0
-2346 -2398 0
-2346 -2399 0
-2346 -2400 0
-2346 -2401 0
-2346 -2402 0
-2346 -2403 0
-2346 -2404 0
-2346 -2405 0
-2346 -2406 0
-2346 -2407 0
-2346 -2408 0
-2347 -2348 0
-2347 -2349 0
-2347 -2350 0
-2347 -2351 0
-2347 -2352 0
-2347 -2353 0
-2347 -2354 0
-2347 -2355 0
-2347 -2356 0
-2347 -2357 0
-2347 -2358 0
-2347 -2359 0
-2347 -2360 0
-2347 -2361 0
-2347 -2362 0
-2347 -2363 0
-2347 -2364 0
-2347 -2365 0
-2347 -2366 0
-2347 -2367 0
-2347 -2368 0
-2347 -2369 0
-2347 -2370 0
-2347 -2371 0
-2347 -2372 0
-2347 -2373 0
-2347 -2374 0
-2347 -2375 0
-2347 -2376 0
-2347 -2377 0
-2347 -2378 0
-2347 -2379 0
-2347 -2380 0
-2347 -2381 0
-2347 -2382 0
-2347 -2383 0
-2347 -2384 0
-2347 -2385 0
-2347 -2386 0
-2347 -2387 0
-2347 -2388 0
-2347 -2389 0
-2347 -2390 0
-2347 -2391 0
-2347 -2392 0
-2347 -2393 0
-2347 -2394 0
-2347 -2395 0
-2347 -2396 0
-2347 -2397 0
-2347 -2398 0
-2347 -2399 0
-2347 -2400 0
-2347 -2401 0
-2347 -2402 0
-2347 -2403 0
-2347 -2404 0
-2347 -2405 0
-2347 -2406 0
-2347 -2407 0
-2347 -2408 0
-2348 -2349 0
-2348 -2350 0
-2348 -2351 0
-2348 -2352 0
-2348 -2353 0
-2348 -2354 0
-2348 -2355 0
-2348 -2356 0
-2348 -2357 0
-2348 -2358 0
-2348 -2359 0
-2348 -2360 0
-2348 -2361 0
-2348 -2362 0
-2348 -2363 0
-2348 -2364 0
-2348 -2365 0
-2348 -2366 0
-2348 -2367 0
-2348 -2368 0
-2348 -2369 0
-2348 -2370 0
-2348 -2371 0
-2348 -2372 0
-2348 -2373 0
-2348 -2374 0
-2348 -2375 0
-2348 -2376 0
-2348 -2377 0
-2348 -2378 0
-2348 -2379 0
-2348 -2380 0
-2348 -2381 0
-2348 -2382 0
-2348 -2383 0
-2348 -2384 0
-2348 -2385 0
-2348 -2386 0
-2348 -2387 0
-2348 -2388 0
-2348 -2389 0
-2348 -2390 0
-2348 -2391 0
-2348 -2392 0
-2348 -2393 0
-2348 -2394 0
-2348 -2395 0
-2348 -2396 0
-2348 -2397 0
-2348 -2398 0
-2348 -2399 0
-2348 -2400 0
-2348 -2401 0
-2348 -2402 0
-2348 -2403 0
-2348 -2404 0
-2348 -2405 0
-2348 -2406 0
-2348 -2407 0
-2348 -2408 0
-2349 -2350 0
-2349 -2351 0
-2349 -2352 0
-2349 -2353 0
-2349 -2354 0
-2349 -2355 0
-2349 -2356 0
-2349 -2357 0
-2349 -2358 0
-2349 -2359 0
-2349 -2360 0
-2349 -2361 0
-2349 -2362 0
-2349 -2363 0
-2349 -2364 0
-2349 -2365 0
-2349 -2366 0
-2349 -2367 0
-2349 -2368 0
-2349 -2369 0
-2349 -2370 0
-2349 -2371 0
-2349 -2372 0
-2349 -2373 0
-2349 -2374 0
-2349 -2375 0
-2349 -2376 0
-2349 -2377 0
-2349 -2378 0
-2349 -2379 0
-2349 -2380 0
-2349 -2381 0
-2349 -2382 0
-2349 -2383 0
-2349 -2384 0
-2349 -2385 0
-2349 -2386 0
-2349 -2387 0
-2349 -2388 0
-2349 -2389 0
-2349 -2390 0
-2349 -2391 0
-2349 -2392 0
-2349 -2393 0
-2349 -2394 0
-2349 -2395 0
-2349 -2396 0
-2349 -2397 0
-2349 -2398 0
-2349 -2399 0
-2349 -2400 0
-2349 -2401 0
-2349 -2402 0
-2349 -2403 0
-2349 -2404 0
-2349 -2405 0
-2349 -2406 0
-2349 -2407 0
-2349 -2408 0
-2350 -2351 0
-2350 -2352 0
-2350 -2353 0
-2350 -2354 0
-2350 -2355 0
-2350 -2356 0
-2350 -2357 0
-2350 -2358 0
-2350 -2359 0
-2350 -2360 0
-2350 -2361 0
-2350 -2362 0
-2350 -2363 0
-2350 -2364 0
-2350 -2365 0
-2350 -2366 0
-2350 -2367 0
-2350 -2368 0
-2350 -2369 0
-2350 -2370 0
-2350 -2371 0
-2350 -2372 0
-2350 -2373 0
-2350 -2374 0
-2350 -2375 0
-2350 -2376 0
-2350 -2377 0
-2350 -2378 0
-2350 -2379 0
-2350 -2380 0
-2350 -2381 0
-2350 -2382 0
-2350 -2383 0
-2350 -2384 0
-2350 -2385 0
-2350 -2386 0
-2350 -2387 0
-2350 -2388 0
-2350 -2389 0
-2350 -2390 0
-2350 -2391 0
-2350 -2392 0
-2350 -2393 0
-2350 -2394 0
-2350 -2395 0
-2350 -2396 0
-2350 -2397 0
-2350 -2398 0
-2350 -2399 0
-2350 -2400 0
-2350 -2401 0
-2350 -2402 0
-2350 -2403 0
-2350 -2404 0
-2350 -2405 0
-2350 -2406 0
-2350 -2407 0
-2350 -2408 0
-2351 -2352 0
-2351 -2353 0
-2351 -2354 0
-2351 -2355 0
-2351 -2356 0
-2351 -2357 0
-2351 -2358 0
-2351 -2359 0
-2351 -2360 0
-2351 -2361 0
-2351 -2362 0
-2351 -2363 0
-2351 -2364 0
-2351 -2365 0
-2351 -2366 0
-2351 -2367 0
-2351 -2368 0
-2351 -2369 0
-2351 -2370 0
-2351 -2371 0
-2351 -2372 0
-2351 -2373 0
-2351 -2374 0
-2351 -2375 0
-2351 -2376 0
-2351 -2377 0
-2351 -2378 0
-2351 -2379 0
-2351 -2380 0
-2351 -2381 0
-2351 -2382 0
-2351 -2383 0
-2351 -2384 0
-2351 -2385 0
-2351 -2386 0
-2351 -2387 0
-2351 -2388 0
-2351 -2389 0
-2351 -2390 0
-2351 -2391 0
-2351 -2392 0
-2351 -2393 0
-2351 -2394 0
-2351 -2395 0
-2351 -2396 0
-2351 -2397 0
-2351 -2398 0
-2351 -2399 0
-2351 -2400 0
-2351 -2401 0
-2351 -2402 0
-2351 -2403 0
-2351 -2404 0
-2351 -2405 0
-2351 -2406 0
-2351 -2407 0
-2351 -2408 0
-2352 -2353 0
-2352 -2354 0
-2352 -2355 0
-2352 -2356 0
-2352 -2357 0
-2352 -2358 0
-2352 -2359 0
-2352 -2360 0
-2352 -2361 0
-2352 -2362 0
-2352 -2363 0
-2352 -2364 0
-2352 -2365 0
-2352 -2366 0
-2352 -2367 0
-2352 -2368 0
-2352 -2369 0
-2352 -2370 0
-2352 -2371 0
-2352 -2372 0
-2352 -2373 0
-2352 -2374 0
-2352 -2375 0
-2352 -2376 0
-2352 -2377 0
-2352 -2378 0
-2352 -2379 0
-2352 -2380 0
-2352 -2381 0
-2352 -2382 0
-2352 -2383 0
-2352 -2384 0
-2352 -2385 0
-2352 -2386 0
-2352 -2387 0
-2352 -2388 0
-2352 -2389 0
-2352 -2390 0
-2352 -2391 0
-2352 -2392 0
-2352 -2393 0
-2352 -2394 0
-2352 -2395 0
-2352 -2396 0
-2352 -2397 0
-2352 -2398 0
-2352 -2399 0
-2352 -2400 0
-2352 -2401 0
-2352 -2402 0
-2352 -2403 0
-2352 -2404 0
-2352 -2405 0
-2352 -2406 0
-2352 -2407 0
-2352 -2408 0
-2353 -2354 0
-2353 -2355 0
-2353 -2356 0
-2353 -2357 0
-2353 -2358 0
-2353 -2359 0
-2353 -2360 0
-2353 -2361 0
-2353 -2362 0
-2353 -2363 0
-2353 -2364 0
-2353 -2365 0
-2353 -2366 0
-2353 -2367 0
-2353 -2368 0
-2353 -2369 0
-2353 -2370 0
-2353 -2371 0
-2353 -2372 0
-2353 -2373 0
-2353 -2374 0
-2353 -2375 0
-2353 -2376 0
-2353 -2377 0
-2353 -2378 0
-2353 -2379 0
-2353 -2380 0
-2353 -2381 0
-2353 -2382 0
-2353 -2383 0
-2353 -2384 0
-2353 -2385 0
-2353 -2386 0
-2353 -2387 0
-2353 -2388 0
-2353 -2389 0
-2353 -2390 0
-2353 -2391 0
-2353 -2392 0
-2353 -2393 0
-2353 -2394 0
-2353 -2395 0
-2353 -2396 0
-2353 -2397 0
-2353 -2398 0
-2353 -2399 0
-2353 -2400 0
-2353 -2401 0
-2353 -2402 0
-2353 -2403 0
-2353 -2404 0
-2353 -2405 0
-2353 -2406 0
-2353 -2407 0
-2353 -2408 0
-2354 -2355 0
-2354 -2356 0
-2354 -2357 0
-2354 -2358 0
-2354 -2359 0
-2354 -2360 0
-2354 -2361 0
-2354 -2362 0
-2354 -2363 0
-2354 -2364 0
-2354 -2365 0
-2354 -2366 0
-2354 -2367 0
-2354 -2368 0
-2354 -2369 0
-2354 -2370 0
-2354 -2371 0
-2354 -2372 0
-2354 -2373 0
-2354 -2374 0
-2354 -2375 0
-2354 -2376 0
-2354 -2377 0
-2354 -2378 0
-2354 -2379 0
-2354 -2380 0
-2354 -2381 0
-2354 -2382 0
-2354 -2383 0
-2354 -2384 0
-2354 -2385 0
-2354 -2386 0
-2354 -2387 0
-2354 -2388 0
-2354 -2389 0
-2354 -2390 0
-2354 -2391 0
-2354 -2392 0
-2354 -2393 0
-2354 -2394 0
-2354 -2395 0
-2354 -2396 0
-2354 -2397 0
-2354 -2398 0
-2354 -2399 0
-2354 -2400 0
-2354 -2401 0
-2354 -2402 0
-2354 -2403 0
-2354 -2404 0
-2354 -2405 0
-2354 -2406 0
-2354 -2407 0
-2354 -2408 0
-2355 -2356 0
-2355 -2357 0
-2355 -2358 0
-2355 -2359 0
-2355 -2360 0
-2355 -2361 0
-2355 -2362 0
-2355 -2363 0
-2355 -2364 0
-2355 -2365 0
-2355 -2366 0
-2355 -2367 0
-2355 -2368 0
-2355 -2369 0
-2355 -2370 0
-2355 -2371 0
-2355 -2372 0
-2355 -2373 0
-2355 -2374 0
-2355 -2375 0
-2355 -2376 0
-2355 -2377 0
-2355 -2378 0
-2355 -2379 0
-2355 -2380 0
-2355 -2381 0
-2355 -2382 0
-2355 -2383 0
-2355 -2384 0
-2355 -2385 0
-2355 -2386 0
-2355 -2387 0
-2355 -2388 0
-2355 -2389 0
-2355 -2390 0
-2355 -2391 0
-2355 -2392 0
-2355 -2393 0
-2355 -2394 0
-2355 -2395 0
-2355 -2396 0
-2355 -2397 0
-2355 -2398 0
-2355 -2399 0
-2355 -2400 0
-2355 -2401 0
-2355 -2402 0
-2355 -2403 0
-2355 -2404 0
-2355 -2405 0
-2355 -2406 0
-2355 -2407 0
-2355 -2408 0
-2356 -2357 0
-2356 -2358 0
-2356 -2359 0
-2356 -2360 0
-2356 -2361 0
-2356 -2362 0
-2356 -2363 0
-2356 -2364 0
-2356 -2365 0
-2356 -2366 0
-2356 -2367 0
-2356 -2368 0
-2356 -2369 0
-2356 -2370 0
-2356 -2371 0
-2356 -2372 0
-2356 -2373 0
-2356 -2374 0
-2356 -2375 0
-2356 -2376 0
-2356 -2377 0
-2356 -2378 0
-2356 -2379 0
-2356 -2380 0
-2356 -2381 0
-2356 -2382 0
-2356 -2383 0
-2356 -2384 0
-2356 -2385 0
-2356 -2386 0
-2356 -2387 0
-2356 -2388 0
-2356 -2389 0
-2356 -2390 0
-2356 -2391 0
-2356 -2392 0
-2356 -2393 0
-2356 -2394 0
-2356 -2395 0
-2356 -2396 0
-2356 -2397 0
-2356 -2398 0
-2356 -2399 0
-2356 -2400 0
-2356 -2401 0
-2356 -2402 0
-2356 -2403 0
-2356 -2404 0
-2356 -2405 0
-2356 -2406 0
-2356 -2407 0
-2356 -2408 0
-2357 -2358 0
-2357 -2359 0
-2357 -2360 0
-2357 -2361 0
-2357 -2362 0
-2357 -2363 0
-2357 -2364 0
-2357 -2365 0
-2357 -2366 0
-2357 -2367 0
-2357 -2368 0
-2357 -2369 0
-2357 -2370 0
-2357 -2371 0
-2357 -2372 0
-2357 -2373 0
-2357 -2374 0
-2357 -2375 0
-2357 -2376 0
-2357 -2377 0
-2357 -2378 0
-2357 -2379 0
-2357 -2380 0
-2357 -2381 0
-2357 -2382 0
-2357 -2383 0
-2357 -2384 0
-2357 -2385 0
-2357 -2386 0
-2357 -2387 0
-2357 -2388 0
-2357 -2389 0
-2357 -2390 0
-2357 -2391 0
-2357 -2392 0
-2357 -2393 0
-2357 -2394 0
-2357 -2395 0
-2357 -2396 0
-2357 -2397 0
-2357 -2398 0
-2357 -2399 0
-2357 -2400 0
-2357 -2401 0
-2357 -2402 0
-2357 -2403 0
-2357 -2404 0
-2357 -2405 0
-2357 -2406 0
-2357 -2407 0
-2357 -2408 0
-2358 -2359 0
-2358 -2360 0
-2358 -2361 0
-2358 -2362 0
-2358 -2363 0
-2358 -2364 0
-2358 -2365 0
-2358 -2366 0
-2358 -2367 0
-2358 -2368 0
-2358 -2369 0
-2358 -2370 0
-2358 -2371 0
-2358 -2372 0
-2358 -2373 0
-2358 -2374 0
-2358 -2375 0
-2358 -2376 0
-2358 -2377 0
-2358 -2378 0
-2358 -2379 0
-2358 -2380 0
-2358 -2381 0
-2358 -2382 0
-2358 -2383 0
-2358 -2384 0
-2358 -2385 0
-2358 -2386 0
-2358 -2387 0
-2358 -2388 0
-2358 -2389 0
-2358 -2390 0
-2358 -2391 0
-2358 -2392 0
-2358 -2393 0
-2358 -2394 0
-2358 -2395 0
-2358 -2396 0
-2358 -2397 0
-2358 -2398 0
-2358 -2399 0
-2358 -2400 0
-2358 -2401 0
-2358 -2402 0
-2358 -2403 0
-2358 -2404 0
-2358 -2405 0
-2358 -2406 0
-2358 -2407 0
-2358 -2408 0
-2359 -2360 0
-2359 -2361 0
-2359 -2362 0
-2359 -2363 0
-2359 -2364 0
-2359 -2365 0
-2359 -2366 0
-2359 -2367 0
-2359 -2368 0
-2359 -2369 0
-2359 -2370 0
-2359 -2371 0
-2359 -2372 0
-2359 -2373 0
-2359 -2374 0
-2359 -2375 0
-2359 -2376 0
-2359 -2377 0
-2359 -2378 0
-2359 -2379 0
-2359 -2380 0
-2359 -2381 0
-2359 -2382 0
-2359 -2383 0
-2359 -2384 0
-2359 -2385 0
-2359 -2386 0
-2359 -2387 0
-2359 -2388 0
-2359 -2389 0
-2359 -2390 0
-2359 -2391 0
-2359 -2392 0
-2359 -2393 0
-2359 -2394 0
-2359 -2395 0
-2359 -2396 0
-2359 -2397 0
-2359 -2398 0
-2359 -2399 0
-2359 -2400 0
-2359 -2401 0
-2359 -2402 0
-2359 -2403 0
-2359 -2404 0
-2359 -2405 0
-2359 -2406 0
-2359 -2407 0
-2359 -2408 0
-2360 -2361 0
-2360 -2362 0
-2360 -2363 0
-2360 -2364 0
-2360 -2365 0
-2360 -2366 0
-2360 -2367 0
-2360 -2368 0
-2360 -2369 0
-2360 -2370 0
-2360 -2371 0
-2360 -2372 0
-2360 -2373 0
-2360 -2374 0
-2360 -2375 0
-2360 -2376 0
-2360 -2377 0
-2360 -2378 0
-2360 -2379 0
-2360 -2380 0
-2360 -2381 0
-2360 -2382 0
-2360 -2383 0
-2360 -2384 0
-2360 -2385 0
-2360 -2386 0
-2360 -2387 0
-2360 -2388 0
-2360 -2389 0
-2360 -2390 0
-2360 -2391 0
-2360 -2392 0
-2360 -2393 0
-2360 -2394 0
-2360 -2395 0
-2360 -2396 0
-2360 -2397 0
-2360 -2398 0
-2360 -2399 0
-2360 -2400 0
-2360 -2401 0
-2360 -2402 0
-2360 -2403 0
-2360 -2404 0
-2360 -2405 0
-2360 -2406 0
-2360 -2407 0
-2360 -2408 0
-2361 -2362 0
-2361 -2363 0
-2361 -2364 0
-2361 -2365 0
-2361 -2366 0
-2361 -2367 0
-2361 -2368 0
-2361 -2369 0
-2361 -2370 0
-2361 -2371 0
-2361 -2372 0
-2361 -2373 0
-2361 -2374 0
-2361 -2375 0
-2361 -2376 0
-2361 -2377 0
-2361 -2378 0
-2361 -2379 0
-2361 -2380 0
-2361 -2381 0
-2361 -2382 0
-2361 -2383 0
-2361 -2384 0
-2361 -2385 0
-2361 -2386 0
-2361 -2387 0
-2361 -2388 0
-2361 -2389 0
-2361 -2390 0
-2361 -2391 0
-2361 -2392 0
-2361 -2393 0
-2361 -2394 0
-2361 -2395 0
-2361 -2396 0
-2361 -2397 0
-2361 -2398 0
-2361 -2399 0
-2361 -2400 0
-2361 -2401 0
-2361 -2402 0
-2361 -2403 0
-2361 -2404 0
-2361 -2405 0
-2361 -2406 0
-2361 -2407 0
-2361 -2408 0
-2362 -2363 0
-2362 -2364 0
-2362 -2365 0
-2362 -2366 0
-2362 -2367 0
-2362 -2368 0
-2362 -2369 0
-2362 -2370 0
-2362 -2371 0
-2362 -2372 0
-2362 -2373 0
-2362 -2374 0
-2362 -2375 0
-2362 -2376 0
-2362 -2377 0
-2362 -2378 0
-2362 -2379 0
-2362 -2380 0
-2362 -2381 0
-2362 -2382 0
-2362 -2383 0
-2362 -2384 0
-2362 -2385 0
-2362 -2386 0
-2362 -2387 0
-2362 -2388 0
-2362 -2389 0
-2362 -2390 0
-2362 -2391 0
-2362 -2392 0
-2362 -2393 0
-2362 -2394 0
-2362 -2395 0
-2362 -2396 0
-2362 -2397 0
-2362 -2398 0
-2362 -2399 0
-2362 -2400 0
-2362 -2401 0
-2362 -2402 0
-2362 -2403 0
-2362 -2404 0
-2362 -2405 0
-2362 -2406 0
-2362 -2407 0
-2362 -2408 0
-2363 -2364 0
-2363 -2365 0
-2363 -2366 0
-2363 -2367 0
-2363 -2368 0
-2363 -2369 0
-2363 -2370 0
-2363 -2371 0
-2363 -2372 0
-2363 -2373 0
-2363 -2374 0
-2363 -2375 0
-2363 -2376 0
-2363 -2377 0
-2363 -2378 0
-2363 -2379 0
-2363 -2380 0
-2363 -2381 0
-2363 -2382 0
-2363 -2383 0
-2363 -2384 0
-2363 -2385 0
-2363 -2386 0
-2363 -2387 0
-2363 -2388 0
-2363 -2389 0
-2363 -2390 0
-2363 -2391 0
-2363 -2392 0
-2363 -2393 0
-2363 -2394 0
-2363 -2395 0
-2363 -2396 0
-2363 -2397 0
-2363 -2398 0
-2363 -2399 0
-2363 -2400 0
-2363 -2401 0
-2363 -2402 0
-2363 -2403 0
-2363 -2404 0
-2363 -2405 0
-2363 -2406 0
-2363 -2407 0
-2363 -2408 0
-2364 -2365 0
-2364 -2366 0
-2364 -2367 0
-2364 -2368 0
-2364 -2369 0
-2364 -2370 0
-2364 -2371 0
-2364 -2372 0
-2364 -2373 0
-2364 -2374 0
-2364 -2375 0
-2364 -2376 0
-2364 -2377 0
-2364 -2378 0
-2364 -2379 0
-2364 -2380 0
-2364 -2381 0
-2364 -2382 0
-2364 -2383 0
-2364 -2384 0
-2364 -2385 0
-2364 -2386 0
-2364 -2387 0
-2364 -2388 0
-2364 -2389 0
-2364 -2390 0
-2364 -2391 0
-2364 -2392 0
-2364 -2393 0
-2364 -2394 0
-2364 -2395 0
-2364 -2396 0
-2364 -2397 0
-2364 -2398 0
-2364 -2399 0
-2364 -2400 0
-2364 -2401 0
-2364 -2402 0
-2364 -2403 0
-2364 -2404 0
-2364 -2405 0
-2364 -2406 0
-2364 -2407 0
-2364 -2408 0
-2365 -2366 0
-2365 -2367 0
-2365 -2368 0
-2365 -2369 0
-2365 -2370 0
-2365 -2371 0
-2365 -2372 0
-2365 -2373 0
-2365 -2374 0
-2365 -2375 0
-2365 -2376 0
-2365 -2377 0
-2365 -2378 0
-2365 -2379 0
-2365 -2380 0
-2365 -2381 0
-2365 -2382 0
-2365 -2383 0
-2365 -2384 0
-2365 -2385 0
-2365 -2386 0
-2365 -2387 0
-2365 -2388 0
-2365 -2389 0
-2365 -2390 0
-2365 -2391 0
-2365 -2392 0
-2365 -2393 0
-2365 -2394 0
-2365 -2395 0
-2365 -2396 0
-2365 -2397 0
-2365 -2398 0
-2365 -2399 0
-2365 -2400 0
-2365 -2401 0
-2365 -2402 0
-2365 -2403 0
-2365 -2404 0
-2365 -2405 0
-2365 -2406 0
-2365 -2407 0
-2365 -2408 0
-2366 -2367 0
-2366 -2368 0
-2366 -2369 0
-2366 -2370 0
-2366 -2371 0
-2366 -2372 0
-2366 -2373 0
-2366 -2374 0
-2366 -2375 0
-2366 -2376 0
-2366 -2377 0
-2366 -2378 0
-2366 -2379 0
-2366 -2380 0
-2366 -2381 0
-2366 -2382 0
-2366 -2383 0
-2366 -2384 0
-2366 -2385 0
-2366 -2386 0
-2366 -2387 0
-2366 -2388 0
-2366 -2389 0
-2366 -2390 0
-2366 -2391 0
-2366 -2392 0
-2366 -2393 0
-2366 -2394 0
-2366 -2395 0
-2366 -2396 0
-2366 -2397 0
-2366 -2398 0
-2366 -2399 0
-2366 -2400 0
-2366 -2401 0
-2366 -2402 0
-2366 -2403 0
-2366 -2404 0
-2366 -2405 0
-2366 -2406 0
-2366 -2407 0
-2366 -2408 0
-2367 -2368 0
-2367 -2369 0
-2367 -2370 0
-2367 -2371 0
-2367 -2372 0
-2367 -2373 0
-2367 -2374 0
-2367 -2375 0
-2367 -2376 0
-2367 -2377 0
-2367 -2378 0
-2367 -2379 0
-2367 -2380 0
-2367 -2381 0
-2367 -2382 0
-2367 -2383 0
-2367 -2384 0
-2367 -2385 0
-2367 -2386 0
-2367 -2387 0
-2367 -2388 0
-2367 -2389 0
-2367 -2390 0
-2367 -2391 0
-2367 -2392 0
-2367 -2393 0
-2367 -2394 0
-2367 -2395 0
-2367 -2396 0
-2367 -2397 0
-2367 -2398 0
-2367 -2399 0
-2367 -2400 0
-2367 -2401 0
-2367 -2402 0
-2367 -2403 0
-2367 -2404 0
-2367 -2405 0
-2367 -2406 0
-2367 -2407 0
-2367 -2408 0
-2368 -2369 0
-2368 -2370 0
-2368 -2371 0
-2368 -2372 0
-2368 -2373 0
-2368 -2374 0
-2368 -2375 0
-2368 -2376 0
-2368 -2377 0
-2368 -2378 0
-2368 -2379 0
-2368 -2380 0
-2368 -2381 0
-2368 -2382 0
-2368 -2383 0
-2368 -2384 0
-2368 -2385 0
-2368 -2386 0
-2368 -2387 0
-2368 -2388 0
-2368 -2389 0
-2368 -2390 0
-2368 -2391 0
-2368 -2392 0
-2368 -2393 0
-2368 -2394 0
-2368 -2395 0
-2368 -2396 0
-2368 -2397 0
-2368 -2398 0
-2368 -2399 0
-2368 -2400 0
-2368 -2401 0
-2368 -2402 0
-2368 -2403 0
-2368 -2404 0
-2368 -2405 0
-2368 -2406 0
-2368 -2407 0
-2368 -2408 0
-2369 -2370 0
-2369 -2371 0
-2369 -2372 0
-2369 -2373 0
-2369 -2374 0
-2369 -2375 0
-2369 -2376 0
-2369 -2377 0
-2369 -2378 0
-2369 -2379 0
-2369 -2380 0
-2369 -2381 0
-2369 -2382 0
-2369 -2383 0
-2369 -2384 0
-2369 -2385 0
-2369 -2386 0
-2369 -2387 0
-2369 -2388 0
-2369 -2389 0
-2369 -2390 0
-2369 -2391 0
-2369 -2392 0
-2369 -2393 0
-2369 -2394 0
-2369 -2395 0
-2369 -2396 0
-2369 -2397 0
-2369 -2398 0
-2369 -2399 0
-2369 -2400 0
-2369 -2401 0
-2369 -2402 0
-2369 -2403 0
-2369 -2404 0
-2369 -2405 0
-2369 -2406 0
-2369 -2407 0
-2369 -2408 0
-2370 -2371 0
-2370 -2372 0
-2370 -2373 0
-2370 -2374 0
-2370 -2375 0
-2370 -2376 0
-2370 -2377 0
-2370 -2378 0
-2370 -2379 0
-2370 -2380 0
-2370 -2381 0
-2370 -2382 0
-2370 -2383 0
-2370 -2384 0
-2370 -2385 0
-2370 -2386 0
-2370 -2387 0
-2370 -2388 0
-2370 -2389 0
-2370 -2390 0
-2370 -2391 0
-2370 -2392 0
-2370 -2393 0
-2370 -2394 0
-2370 -2395 0
-2370 -2396 0
-2370 -2397 0
-2370 -2398 0
-2370 -2399 0
-2370 -2400 0
-2370 -2401 0
-2370 -2402 0
-2370 -2403 0
-2370 -2404 0
-2370 -2405 0
-2370 -2406 0
-2370 -2407 0
-2370 -2408 0
-2371 -2372 0
-2371 -2373 0
-2371 -2374 0
-2371 -2375 0
-2371 -2376 0
-2371 -2377 0
-2371 -2378 0
-2371 -2379 0
-2371 -2380 0
-2371 -2381 0
-2371 -2382 0
-2371 -2383 0
-2371 -2384 0
-2371 -2385 0
-2371 -2386 0
-2371 -2387 0
-2371 -2388 0
-2371 -2389 0
-2371 -2390 0
-2371 -2391 0
-2371 -2392 0
-2371 -2393 0
-2371 -2394 0
-2371 -2395 0
-2371 -2396 0
-2371 -2397 0
-2371 -2398 0
-2371 -2399 0
-2371 -2400 0
-2371 -2401 0
-2371 -2402 0
-2371 -2403 0
-2371 -2404 0
-2371 -2405 0
-2371 -2406 0
-2371 -2407 0
-2371 -2408 0
-2372 -2373 0
-2372 -2374 0
-2372 -2375 0
-2372 -2376 0
-2372 -2377 0
-2372 -2378 0
-2372 -2379 0
-2372 -2380 0
-2372 -2381 0
-2372 -2382 0
-2372 -2383 0
-2372 -2384 0
-2372 -2385 0
-2372 -2386 0
-2372 -2387 0
-2372 -2388 0
-2372 -2389 0
-2372 -2390 0
-2372 -2391 0
-2372 -2392 0
-2372 -2393 0
-2372 -2394 0
-2372 -2395 0
-2372 -2396 0
-2372 -2397 0
-2372 -2398 0
-2372 -2399 0
-2372 -2400 0
-2372 -2401 0
-2372 -2402 0
-2372 -2403 0
-2372 -2404 0
-2372 -2405 0
-2372 -2406 0
-2372 -2407 0
-2372 -2408 0
-2373 -2374 0
-2373 -2375 0
-2373 -2376 0
-2373 -2377 0
-2373 -2378 0
-2373 -2379 0
-2373 -2380 0
-2373 -2381 0
-2373 -2382 0
-2373 -2383 0
-2373 -2384 0
-2373 -2385 0
-2373 -2386 0
-2373 -2387 0
-2373 -2388 0
-2373 -2389 0
-2373 -2390 0
-2373 -2391 0
-2373 -2392 0
-2373 -2393 0
-2373 -2394 0
-2373 -2395 0
-2373 -2396 0
-2373 -2397 0
-2373 -2398 0
-2373 -2399 0
-2373 -2400 0
-2373 -2401 0
-2373 -2402 0
-2373 -2403 0
-2373 -2404 0
-2373 -2405 0
-2373 -2406 0
-2373 -2407 0
-2373 -2408 0
-2374 -2375 0
-2374 -2376 0
-2374 -2377 0
-2374 -2378 0
-2374 -2379 0
-2374 -2380 0
-2374 -2381 0
-2374 -2382 0
-2374 -2383 0
-2374 -2384 0
-2374 -2385 0
-2374 -2386 0
-2374 -2387 0
-2374 -2388 0
-2374 -2389 0
-2374 -2390 0
-2374 -2391 0
-2374 -2392 0
-2374 -2393 0
-2374 -2394 0
-2374 -2395 0
-2374 -2396 0
-2374 -2397 0
-2374 -2398 0
-2374 -2399 0
-2374 -2400 0
-2374 -2401 0
-2374 -2402 0
-2374 -2403 0
-2374 -2404 0
-2374 -2405 0
-2374 -2406 0
-2374 -2407 0
-2374 -2408 0
-2375 -2376 0
-2375 -2377 0
-2375 -2378 0
-2375 -2379 0
-2375 -2380 0
-2375 -2381 0
-2375 -2382 0
-2375 -2383 0
-2375 -2384 0
-2375 -2385 0
-2375 -2386 0
-2375 -2387 0
-2375 -2388 0
-2375 -2389 0
-2375 -2390 0
-2375 -2391 0
-2375 -2392 0
-2375 -2393 0
-2375 -2394 0
-2375 -2395 0
-2375 -2396 0
-2375 -2397 0
-2375 -2398 0
-2375 -2399 0
-2375 -2400 0
-2375 -2401 0
-2375 -2402 0
-2375 -2403 0
-2375 -2404 0
-2375 -2405 0
-2375 -2406 0
-2375 -2407 0
-2375 -2408 0
-2376 -2377 0
-2376 -2378 0
-2376 -2379 0
-2376 -2380 0
-2376 -2381 0
-2376 -2382 0
-2376 -2383 0
-2376 -2384 0
-2376 -2385 0
-2376 -2386 0
-2376 -2387 0
-2376 -2388 0
-2376 -2389 0
-2376 -2390 0
-2376 -2391 0
-2376 -2392 0
-2376 -2393 0
-2376 -2394 0
-2376 -2395 0
-2376 -2396 0
-2376 -2397 0
-2376 -2398 0
-2376 -2399 0
-2376 -2400 0
-2376 -2401 0
-2376 -2402 0
-2376 -2403 0
-2376 -2404 0
-2376 -2405 0
-2376 -2406 0
-2376 -2407 0
-2376 -2408 0
-2377 -2378 0
-2377 -2379 0
-2377 -2380 0
-2377 -2381 0
-2377 -2382 0
-2377 -2383 0
-2377 -2384 0
-2377 -2385 0
-2377 -2386 0
-2377 -2387 0
-2377 -2388 0
-2377 -2389 0
-2377 -2390 0
-2377 -2391 0
-2377 -2392 0
-2377 -2393 0
-2377 -2394 0
-2377 -2395 0
-2377 -2396 0
-2377 -2397 0
-2377 -2398 0
-2377 -2399 0
-2377 -2400 0
-2377 -2401 0
-2377 -2402 0
-2377 -2403 0
-2377 -2404 0
-2377 -2405 0
-2377 -2406 0
-2377 -2407 0
-2377 -2408 0
-2378 -2379 0
-2378 -2380 0
-2378 -2381 0
-2378 -2382 0
-2378 -2383 0
-2378 -2384 0
-2378 -2385 0
-2378 -2386 0
-2378 -2387 0
-2378 -2388 0
-2378 -2389 0
-2378 -2390 0
-2378 -2391 0
-2378 -2392 0
-2378 -2393 0
-2378 -2394 0
-2378 -2395 0
-2378 -2396 0
-2378 -2397 0
-2378 -2398 0
-2378 -2399 0
-2378 -2400 0
-2378 -2401 0
-2378 -2402 0
-2378 -2403 0
-2378 -2404 0
-2378 -2405 0
-2378 -2406 0
-2378 -2407 0
-2378 -2408 0
-2379 -2380 0
-2379 -2381 0
-2379 -2382 0
-2379 -2383 0
-2379 -2384 0
-2379 -2385 0
-2379 -2386 0
-2379 -2387 0
-2379 -2388 0
-2379 -2389 0
-2379 -2390 0
-2379 -2391 0
-2379 -2392 0
-2379 -2393 0
-2379 -2394 0
-2379 -2395 0
-2379 -2396 0
-2379 -2397 0
-2379 -2398 0
-2379 -2399 0
-2379 -2400 0
-2379 -2401 0
-2379 -2402 0
-2379 -2403 0
-2379 -2404 0
-2379 -2405 0
-2379 -2406 0
-2379 -2407 0
-2379 -2408 0
-2380 -2381 0
-2380 -2382 0
-2380 -2383 0
-2380 -2384 0
-2380 -2385 0
-2380 -2386 0
-2380 -2387 0
-2380 -2388 0
-2380 -2389 0
-2380 -2390 0
-2380 -2391 0
-2380 -2392 0
-2380 -2393 0
-2380 -2394 0
-2380 -2395 0
-2380 -2396 0
-2380 -2397 0
-2380 -2398 0
-2380 -2399 0
-2380 -2400 0
-2380 -2401 0
-2380 -2402 0
-2380 -2403 0
-2380 -2404 0
-2380 -2405 0
-2380 -2406 0
-2380 -2407 0
-2380 -2408 0
-2381 -2382 0
-2381 -2383 0
-2381 -2384 0
-2381 -2385 0
-2381 -2386 0
-2381 -2387 0
-2381 -2388 0
-2381 -2389 0
-2381 -2390 0
-2381 -2391 0
-2381 -2392 0
-2381 -2393 0
-2381 -2394 0
-2381 -2395 0
-2381 -2396 0
-2381 -2397 0
-2381 -2398 0
-2381 -2399 0
-2381 -2400 0
-2381 -2401 0
-2381 -2402 0
-2381 -2403 0
-2381 -2404 0
-2381 -2405 0
-2381 -2406 0
-2381 -2407 0
-2381 -2408 0
-2382 -2383 0
-2382 -2384 0
-2382 -2385 0
-2382 -2386 0
-2382 -2387 0
-2382 -2388 0
-2382 -2389 0
-2382 -2390 0
-2382 -2391 0
-2382 -2392 0
-2382 -2393 0
-2382 -2394 0
-2382 -2395 0
-2382 -2396 0
-2382 -2397 0
-2382 -2398 0
-2382 -2399 0
-2382 -2400 0
-2382 -2401 0
-2382 -2402 0
-2382 -2403 0
-2382 -2404 0
-2382 -2405 0
-2382 -2406 0
-2382 -2407 0
-2382 -2408 0
-2383 -2384 0
-2383 -2385 0
-2383 -2386 0
-2383 -2387 0
-2383 -2388 0
-2383 -2389 0
-2383 -2390 0
-2383 -2391 0
-2383 -2392 0
-2383 -2393 0
-2383 -2394 0
-2383 -2395 0
-2383 -2396 0
-2383 -2397 0
-2383 -2398 0
-2383 -2399 0
-2383 -2400 0
-2383 -2401 0
-2383 -2402 0
-2383 -2403 0
-2383 -2404 0
-2383 -2405 0
-2383 -2406 0
-2383 -2407 0
-2383 -2408 0
-2384 -2385 0
-2384 -2386 0
-2384 -2387 0
-2384 -2388 0
-2384 -2389 0
-2384 -2390 0
-2384 -2391 0
-2384 -2392 0
-2384 -2393 0
-2384 -2394 0
-2384 -2395 0
-2384 -2396 0
-2384 -2397 0
-2384 -2398 0
-2384 -2399 0
-2384 -2400 0
-2384 -2401 0
-2384 -2402 0
-2384 -2403 0
-2384 -2404 0
-2384 -2405 0
-2384 -2406 0
-2384 -2407 0
-2384 -2408 0
-2385 -2386 0
-2385 -2387 0
-2385 -2388 0
-2385 -2389 0
-2385 -2390 0
-2385 -2391 0
-2385 -2392 0
-2385 -2393 0
-2385 -2394 0
-2385 -2395 0
-2385 -2396 0
-2385 -2397 0
-2385 -2398 0
-2385 -2399 0
-2385 -2400 0
-2385 -2401 0
-2385 -2402 0
-2385 -2403 0
-2385 -2404 0
-2385 -2405 0
-2385 -2406 0
-2385 -2407 0
-2385 -2408 0
-2386 -2387 0
-2386 -2388 0
-2386 -2389 0
-2386 -2390 0
-2386 -2391 0
-2386 -2392 0
-2386 -2393 0
-2386 -2394 0
-2386 -2395 0
-2386 -2396 0
-2386 -2397 0
-2386 -2398 0
-2386 -2399 0
-2386 -2400 0
-2386 -2401 0
-2386 -2402 0
-2386 -2403 0
-2386 -2404 0
-2386 -2405 0
-2386 -2406 0
-2386 -2407 0
-2386 -2408 0
-2387 -2388 0
-2387 -2389 0
-2387 -2390 0
-2387 -2391 0
-2387 -2392 0
-2387 -2393 0
-2387 -2394 0
-2387 -2395 0
-2387 -2396 0
-2387 -2397 0
-2387 -2398 0
-2387 -2399 0
-2387 -2400 0
-2387 -2401 0
-2387 -2402 0
-2387 -2403 0
-2387 -2404 0
-2387 -2405 0
-2387 -2406 0
-2387 -2407 0
-2387 -2408 0
-2388 -2389 0
-2388 -2390 0
-2388 -2391 0
-2388 -2392 0
-2388 -2393 0
-2388 -2394 0
-2388 -2395 0
-2388 -2396 0
-2388 -2397 0
-2388 -2398 0
-2388 -2399 0
-2388 -2400 0
-2388 -2401 0
-2388 -2402 0
-2388 -2403 0
-2388 -2404 0
-2388 -2405 0
-2388 -2406 0
-2388 -2407 0
-2388 -2408 0
-2389 -2390 0
-2389 -2391 0
-2389 -2392 0
-2389 -2393 0
-2389 -2394 0
-2389 -2395 0
-2389 -2396 0
-2389 -2397 0
-2389 -2398 0
-2389 -2399 0
-2389 -2400 0
-2389 -2401 0
-2389 -2402 0
-2389 -2403 0
-2389 -2404 0
-2389 -2405 0
-2389 -2406 0
-2389 -2407 0
-2389 -2408 0
-2390 -2391 0
-2390 -2392 0
-2390 -2393 0
-2390 -2394 0
-2390 -2395 0
-2390 -2396 0
-2390 -2397 0
-2390 -2398 0
-2390 -2399 0
-2390 -2400 0
-2390 -2401 0
-2390 -2402 0
-2390 -2403 0
-2390 -2404 0
-2390 -2405 0
-2390 -2406 0
-2390 -2407 0
-2390 -2408 0
-2391 -2392 0
-2391 -2393 0
-2391 -2394 0
-2391 -2395 0
-2391 -2396 0
-2391 -2397 0
-2391 -2398 0
-2391 -2399 0
-2391 -2400 0
-2391 -2401 0
-2391 -2402 0
-2391 -2403 0
-2391 -2404 0
-2391 -2405 0
-2391 -2406 0
-2391 -2407 0
-2391 -2408 0
-2392 -2393 0
-2392 -2394 0
-2392 -2395 0
-2392 -2396 0
-2392 -2397 0
-2392 -2398 0
-2392 -2399 0
-2392 -2400 0
-2392 -2401 0
-2392 -2402 0
-2392 -2403 0
-2392 -2404 0
-2392 -2405 0
-2392 -2406 0
-2392 -2407 0
-2392 -2408 0
-2393 -2394 0
-2393 -2395 0
-2393 -2396 0
-2393 -2397 0
-2393 -2398 0
-2393 -2399 0
-2393 -2400 0
-2393 -2401 0
-2393 -2402 0
-2393 -2403 0
-2393 -2404 0
-2393 -2405 0
-2393 -2406 0
-2393 -2407 0
-2393 -2408 0
-2394 -2395 0
-2394 -2396 0
-2394 -2397 0
-2394 -2398 0
-2394 -2399 0
-2394 -2400 0
-2394 -2401 0
-2394 -2402 0
-2394 -2403 0
-2394 -2404 0
-2394 -2405 0
-2394 -2406 0
-2394 -2407 0
-2394 -2408 0
-2395 -2396 0
-2395 -2397 0
-2395 -2398 0
-2395 -2399 0
-2395 -2400 0
-2395 -2401 0
-2395 -2402 0
-2395 -2403 0
-2395 -2404 0
-2395 -2405 0
-2395 -2406 0
-2395 -2407 0
-2395 -2408 0
-2396 -2397 0
-2396 -2398 0
-2396 -2399 0
-2396 -2400 0
-2396 -2401 0
-2396 -2402 0
-2396 -2403 0
-2396 -2404 0
-2396 -2405 0
-2396 -2406 0
-2396 -2407 0
-2396 -2408 0
-2397 -2398 0
-2397 -2399 0
-2397 -2400 0
-2397 -2401 0
-2397 -2402 0
-2397 -2403 0
-2397 -2404 0
-2397 -2405 0
-2397 -2406 0
-2397 -2407 0
-2397 -2408 0
-2398 -2399 0
-2398 -2400 0
-2398 -2401 0
-2398 -2402 0
-2398 -2403 0
-2398 -2404 0
-2398 -2405 0
-2398 -2406 0
-2398 -2407 0
-2398 -2408 0
-2399 -2400 0
-2399 -2401 0
-2399 -2402 0
-2399 -2403 0
-2399 -2404 0
-2399 -2405 0
-2399 -2406 0
-2399 -2407 0
-2399 -2408 0
-2400 -2401 0
-2400 -2402 0
-2400 -2403 0
-2400 -2404 0
-2400 -2405 0
-2400 -2406 0
-2400 -2407 0
-2400 -2408 0
-2401 -2402 0
-2401 -2403 0
-2401 -2404 0
-2401 -2405 0
-2401 -2406 0
-2401 -2407 0
-2401 -2408 0
-2402 -2403 0
-2402 -2404 0
-2402 -2405 0
-2402 -2406 0
-2402 -2407 0
-2402 -2408 0
-2403 -2404 0
-2403 -2405 0
-2403 -2406 0
-2403 -2407 0
-2403 -2408 0
-2404 -2405 0
-2404 -2406 0
-2404 -2407 0
-2404 -2408 0
-2405 -2406 0
-2405 -2407 0
-2405 -2408 0
-2406 -2407 0
-2406 -2408 0
-2407 -2408 0
-2276 78 2343 0
-2276 -78 2342 0
-2277 78 2344 0
-2277 -78 2343 0
-2278 78 2345 0
-2278 -78 2344 0
-2279 78 2346 0
-2279 -78 2345 0
-2280 78 2347 0
-2280 -78 2346 0
-2281 78 2348 0
-2281 -78 2347 0
-2282 78 2349 0
-2282 -78 2348 0
-2283 78 2350 0
-2283 -78 2349 0
-2284 78 2351 0
-2284 -78 2350 0
-2285 78 2352 0
-2285 -78 2351 0
-2286 78 2353 0
-2286 -78 2352 0
-2287 78 2354 0
-2287 -78 2353 0
-2288 78 2355 0
-2288 -78 2354 0
-2289 78 2356 0
-2289 -78 2355 0
-2290 78 2357 0
-2290 -78 2356 0
-2291 78 2358 0
-2291 -78 2357 0
-2292 78 2359 0
-2292 -78 2358 0
-2293 78 2360 0
-2293 -78 2359 0
-2294 78 2361 0
-2294 -78 2360 0
-2295 78 2362 0
-2295 -78 2361 0
-2296 78 2363 0
-2296 -78 2362 0
-2297 78 2364 0
-2297 -78 2363 0
-2298 78 2365 0
-2298 -78 2364 0
-2299 78 2366 0
-2299 -78 2365 0
-2300 78 2367 0
-2300 -78 2366 0
-2301 78 2368 0
-2301 -78 2367 0
-2302 78 2369 0
-2302 -78 2368 0
-2303 78 2370 0
-2303 -78 2369 0
-2304 78 2371 0
-2304 -78 2370 0
-2305 78 2372 0
-2305 -78 2371 0
-2306 78 2373 0
-2306 -78 2372 0
-2307 78 2374 0
-2307 -78 2373 0
-2308 78 2375 0
-2308 -78 2374 0
-2309 78 2376 0
-2309 -78 2375 0
-2310 78 2377 0
-2310 -78 2376 0
-2311 78 2378 0
-2311 -78 2377 0
-2312 78 2379 0
-2312 -78 2378 0
-2313 78 2380 0
-2313 -78 2379 0
-2314 78 2381 0
-2314 -78 2380 0
-2315 78 2382 0
-2315 -78 2381 0
-2316 78 2383 0
-2316 -78 2382 0
-2317 78 2384 0
-2317 -78 2383 0
-2318 78 2385 0
-2318 -78 2384 0
-2319 78 2386 0
-2319 -78 2385 0
-2320 78 2387 0
-2320 -78 2386 0
-2321 78 2388 0
-2321 -78 2387 0
-2322 78 2389 0
-2322 -78 2388 0
-2323 78 2390 0
-2323 -78 2389 0
-2324 78 2391 0
-2324 -78 2390 0
-2325 78 2392 0
-2325 -78 2391 0
-2326 78 2393 0
-2326 -78 2392 0
-2327 78 2394 0
-2327 -78 2393 0
-2328 78 2395 0
-2328 -78 2394 0
-2329 78 2396 0
-2329 -78 2395 0
-2330 78 2397 0
-2330 -78 2396 0
-2331 78 2398 0
-2331 -78 2397 0
-2332 78 2399 0
-2332 -78 2398 0
-2333 78 2400 0
-2333 -78 2399 0
-2334 78 2401 0
-2334 -78 2400 0
-2335 78 2402 0
-2335 -78 2401 0
-2336 78 2403 0
-2336 -78 2402 0
-2337 78 2404 0
-2337 -78 2403 0
-2338 78 2405 0
-2338 -78 2404 0
-2339 78 2406 0
-2339 -78 2405 0
-2340 78 2407 0
-2340 -78 2406 0
-2341 78 2408 0
-2341 -78 2407 0
2409 2410 2411 2412 2413 2414 2415 2416 2417 2418 2419 2420 2421 2422 2423 2424 2425 2426 2427 2428 2429 2430 2431 2432 2433 2434 2435 2436 2437 2438 2439 2440 2441 2442 2443 2444 2445 2446 2447 2448 2449 2450 2451 2452 2453 2454 2455 2456 2457 2458 2459 2460 2461 2462 2463 2464 2465 2466 2467 2468 2469 2470 2471 2472 2473 2474 2475 2476 0
-2409 -2410 0
-2409 -2411 0
-2409 -2412 0
-2409 -2413 0
-2409 -2414 0
-2409 -2415 0
-2409 -2416 0
-2409 -2417 0
-2409 -2418 0
-2409 -2419 0
-2409 -2420 0
-2409 -2421 0
-2409 -2422 0
-2409 -2423 0
-2409 -2424 0
-2409 -2425 0
-2409 -2426 0
-2409 -2427 0
-2409 -2428 0
-2409 -2429 0
-2409 -2430 0
-2409 -2431 0
-2409 -2432 0
-2409 -2433 0
-2409 -2434 0
-2409 -2435 0
-2409 -2436 0
-2409 -2437 0
-2409 -2438 0
-2409 -2439 0
-2409 -2440 0
-2409 -2441 0
-2409 -2442 0
-2409 -2443 0
-2409 -2444 0
-2409 -2445 0
-2409 -2446 0
-2409 -2447 0
-2409 -2448 0
-2409 -2449 0
-2409 -2450 0
-2409 -2451 0
-2409 -2452 0
-2409 -2453 0
-2409 -2454 0
-2409 -2455 0
-2409 -2456 0
-2409 -2457 0
-2409 -2458 0
-2409 -2459 0
-2409 -2460 0
-2409 -2461 0
-2409 -2462 0
-2409 -2463 0
-2409 -2464 0
-2409 -2465 0
-2409 -2466 0
-2409 -2467 0
-2409 -2468 0
-2409 -2469 0
-2409 -2470 0
-2409 -2471 0
-2409 -2472 0
-2409 -2473 0
-2409 -2474 0
-2409 -2475 0
-2409 -2476 0
-2410 -2411 0
-2410 -2412 0
-2410 -2413 0
-2410 -2414 0
-2410 -2415 0
-2410 -2416 0
-2410 -2417 0
-2410 -2418 0
-2410 -2419 0
-2410 -2420 0
-2410 -2421 0
-2410 -2422 0
-2410 -2423 0
-2410 -2424 0
-2410 -2425 0
-2410 -2426 0
-2410 -2427 0
-2410 -2428 0
-2410 -2429 0
-2410 -2430 0
-2410 -2431 0
-2410 -2432 0
-2410 -2433 0
-2410 -2434 0
-2410 -2435 0
-2410 -2436 0
-2410 -2437 0
-2410 -2438 0
-2410 -2439 0
-2410 -2440 0
-2410 -2441 0
-2410 -2442 0
-2410 -2443 0
-2410 -2444 0
-2410 -2445 0
-2410 -2446 0
-2410 -2447 0
-2410 -2448 0
-2410 -2449 0
-2410 -2450 0
-2410 -2451 0
-2410 -2452 0
-2410 -2453 0
-2410 -2454 0
-2410 -2455 0
-2410 -2456 0
-2410 -2457 0
-2410 -2458 0
-2410 -2459 0
-2410 -2460 0
-2410 -2461 0
-2410 -2462 0
-2410 -2463 0
-2410 -2464 0
-2410 -2465 0
-2410 -2466 0
-2410 -2467 0
-2410 -2468 0
-2410 -2469 0
-2410 -2470 0
-2410 -2471 0
-2410 -2472 0
-2410 -2473 0
-2410 -2474 0
-2410 -2475 0
-2410 -2476 0
-2411 -2412 0
-2411 -2413 0
-2411 -2414 0
-2411 -2415 0
-2411 -2416 0
-2411 -2417 0
-2411 -2418 0
-2411 -2419 0
-2411 -2420 0
-2411 -2421 0
-2411 -2422 0
-2411 -2423 0
-2411 -2424 0
-2411 -2425 0
-2411 -2426 0
-2411 -2427 0
-2411 -2428 0
-2411 -2429 0
-2411 -2430 0
-2411 -2431 0
-2411 -2432 0
-2411 -2433 0
-2411 -2434 0
-2411 -2435 0
-2411 -2436 0
-2411 -2437 0
-2411 -2438 0
-2411 -2439 0
-2411 -2440 0
-2411 -2441 0
-2411 -2442 0
-2411 -2443 0
-2411 -2444 0
-2411 -2445 0
-2411 -2446 0
-2411 -2447 0
-2411 -2448 0
-2411 -2449 0
-2411 -2450 0
-2411 -2451 0
-2411 -2452 0
-2411 -2453 0
-2411 -2454 0
-2411 -2455 0
-2411 -2456 0
-2411 -2457 0
-2411 -2458 0
-2411 -2459 0
-2411 -2460 0
-2411 -2461 0
-2411 -2462 0
-2411 -2463 0
-2411 -2464 0
-2411 -2465 0
-2411 -2466 0
-2411 -2467 0
-2411 -2468 0
-2411 -2469 0
-2411 -2470 0
-2411 -2471 0
-2411 -2472 0
-2411 -2473 0
-2411 -2474 0
-2411 -2475 0
-2411 -2476 0
-2412 -2413 0
-2412 -2414 0
-2412 -2415 0
-2412 -2416 0
-2412 -2417 0
-2412 -2418 0
-2412 -2419 0
-2412 -2420 0
-2412 -2421 0
-2412 -2422 0
-2412 -2423 0
-2412 -2424 0
-2412 -2425 0
-2412 -2426 0
-2412 -2427 0
-2412 -2428 0
-2412 -2429 0
-2412 -2430 0
-2412 -2431 0
-2412 -2432 0
-2412 -2433 0
-2412 -2434 0
-2412 -2435 0
-2412 -2436 0
-2412 -2437 0
-2412 -2438 0
-2412 -2439 0
-2412 -2440 0
-2412 -2441 0
-2412 -2442 0
-2412 -2443 0
-2412 -2444 0
-2412 -2445 0
-2412 -2446 0
-2412 -2447 0
-2412 -2448 0
-2412 -2449 0
-2412 -2450 0
-2412 -2451 0
-2412 -2452 0
-2412 -2453 0
-2412 -2454 0
-2412 -2455 0
-2412 -2456 0
-2412 -2457 0
-2412 -2458 0
-2412 -2459 0
-2412 -2460 0
-2412 -2461 0
-2412 -2462 0
-2412 -2463 0
-2412 -2464 0
-2412 -2465 0
-2412 -2466 0
-2412 -2467 0
-2412 -2468 0
-2412 -2469 0
-2412 -2470 0
-2412 -2471 0
-2412 -2472 0
-2412 -2473 0
-2412 -2474 0
-2412 -2475 0
-2412 -2476 0
-2413 -2414 0
-2413 -2415 0
-2413 -2416 0
-2413 -2417 0
-2413 -2418 0
-2413 -2419 0
-2413 -2420 0
-2413 -2421 0
-2413 -2422 0
-2413 -2423 0
-2413 -2424 0
-2413 -2425 0
-2413 -2426 0
-2413 -2427 0
-2413 -2428 0
-2413 -2429 0
-2413 -2430 0
-2413 -2431 0
-2413 -2432 0
-2413 -2433 0
-2413 -2434 0
-2413 -2435 0
-2413 -2436 0
-2413 -2437 0
-2413 -2438 0
-2413 -2439 0
-2413 -2440 0
-2413 -2441 0
-2413 -2442 0
-2413 -2443 0
-2413 -2444 0
-2413 -2445 0
-2413 -2446 0
-2413 -2447 0
-2413 -2448 0
-2413 -2449 0
-2413 -2450 0
-2413 -2451 0
-2413 -2452 0
-2413 -2453 0
-2413 -2454 0
-2413 -2455 0
-2413 -2456 0
-2413 -2457 0
-2413 -2458 0
-2413 -2459 0
-2413 -2460 0
-2413 -2461 0
-2413 -2462 0
-2413 -2463 0
-2413 -2464 0
-2413 -2465 0
-2413 -2466 0
-2413 -2467 0
-2413 -2468 0
-2413 -2469 0
-2413 -2470 0
-2413 -2471 0
-2413 -2472 0
-2413 -2473 0
-2413 -2474 0
-2413 -2475 0
-2413 -2476 0
-2414 -2415 0
-2414 -2416 0
-2414 -2417 0
-2414 -2418 0
-2414 -2419 0
-2414 -2420 0
-2414 -2421 0
-2414 -2422 0
-2414 -2423 0
-2414 -2424 0
-2414 -2425 0
-2414 -2426 0
-2414 -2427 0
-2414 -2428 0
-2414 -2429 0
-2414 -2430 0
-2414 -2431 0
-2414 -2432 0
-2414 -2433 0
-2414 -2434 0
-2414 -2435 0
-2414 -2436 0
-2414 -2437 0
-2414 -2438 0
-2414 -2439 0
-2414 -2440 0
-2414 -2441 0
-2414 -2442 0
-2414 -2443 0
-2414 -2444 0
-2414 -2445 0
-2414 -2446 0
-2414 -2447 0
-2414 -2448 0
-2414 -2449 0
-2414 -2450 0
-2414 -2451 0
-2414 -2452 0
-2414 -2453 0
-2414 -2454 0
-2414 -2455 0
-2414 -2456 0
-2414 -2457 0
-2414 -2458 0
-2414 -2459 0
-2414 -2460 0
-2414 -2461 0
-2414 -2462 0
-2414 -2463 0
-2414 -2464 0
-2414 -2465 0
-2414 -2466 0
-2414 -2467 0
-2414 -2468 0
-2414 -2469 0
-2414 -2470 0
-2414 -2471 0
-2414 -2472 0
-2414 -2473 0
-2414 -2474 0
-2414 -2475 0
-2414 -2476 0
-2415 -2416 0
-2415 -2417 0
-2415 -2418 0
-2415 -2419 0
-2415 -2420 0
-2415 -2421 0
-2415 -2422 0
-2415 -2423 0
-2415 -2424 0
-2415 -2425 0
-2415 -2426 0
-2415 -2427 0
-2415 -2428 0
-2415 -2429 0
-2415 -2430 0
-2415 -2431 0
-2415 -2432 0
-2415 -2433 0
-2415 -2434 0
-2415 -2435 0
-2415 -2436 0
-2415 -2437 0
-2415 -2438 0
-2415 -2439 0
-2415 -2440 0
-2415 -2441 0
-2415 -2442 0
-2415 -2443 0
-2415 -2444 0
-2415 -2445 0
-2415 -2446 0
-2415 -2447 0
-2415 -2448 0
-2415 -2449 0
-2415 -2450 0
-2415 -2451 0
-2415 -2452 0
-2415 -2453 0
-2415 -2454 0
-2415 -2455 0
-2415 -2456 0
-2415 -2457 0
-2415 -2458 0
-2415 -2459 0
-2415 -2460 0
-2415 -2461 0
-2415 -2462 0
-2415 -2463 0
-2415 -2464 0
-2415 -2465 0
-2415 -2466 0
-2415 -2467 0
-2415 -2468 0
-2415 -2469 0
-2415 -2470 0
-2415 -2471 0
-2415 -2472 0
-2415 -2473 0
-2415 -2474 0
-2415 -2475 0
-2415 -2476 0
-2416 -2417 0
-2416 -2418 0
-2416 -2419 0
-2416 -2420 0
-2416 -2421 0
-2416 -2422 0
-2416 -2423 0
-2416 -2424 0
-2416 -2425 0
-2416 -2426 0
-2416 -2427 0
-2416 -2428 0
-2416 -2429 0
-2416 -2430 0
-2416 -2431 0
-2416 -2432 0
-2416 -2433 0
-2416 -2434 0
-2416 -2435 0
-2416 -2436 0
-2416 -2437 0
-2416 -2438 0
-2416 -2439 0
-2416 -2440 0
-2416 -2441 0
-2416 -2442 0
-2416 -2443 0
-2416 -2444 0
-2416 -2445 0
-2416 -2446 0
-2416 -2447 0
-2416 -2448 0
-2416 -2449 0
-2416 -2450 0
-2416 -2451 0
-2416 -2452 0
-2416 -2453 0
-2416 -2454 0
-2416 -2455 0
-2416 -2456 0
-2416 -2457 0
-2416 -2458 0
-2416 -2459 0
-2416 -2460 0
-2416 -2461 0
-2416 -2462 0
-2416 -2463 0
-2416 -2464 0
-2416 -2465 0
-2416 -2466 0
-2416 -2467 0
-2416 -2468 0
-2416 -2469 0
-2416 -2470 0
-2416 -2471 0
-2416 -2472 0
-2416 -2473 0
-2416 -2474 0
-2416 -2475 0
-2416 -2476 0
-2417 -2418 0
-2417 -2419 0
-2417 -2420 0
-2417 -2421 0
-2417 -2422 0
-2417 -2423 0
-2417 -2424 0
-2417 -2425 0
-2417 -2426 0
-2417 -2427 0
-2417 -2428 0
-2417 -2429 0
-2417 -2430 0
-2417 -2431 0
-2417 -2432 0
-2417 -2433 0
-2417 -2434 0
-2417 -2435 0
-2417 -2436 0
-2417 -2437 0
-2417 -2438 0
-2417 -2439 0
-2417 -2440 0
-2417 -2441 0
-2417 -2442 0
-2417 -2443 0
-2417 -2444 0
-2417 -2445 0
-2417 -2446 0
-2417 -2447 0
-2417 -2448 0
-2417 -2449 0
-2417 -2450 0
-2417 -2451 0
-2417 -2452 0
-2417 -2453 0
-2417 -2454 0
-2417 -2455 0
-2417 -2456 0
-2417 -2457 0
-2417 -2458 0
-2417 -2459 0
-2417 -2460 0
-2417 -2461 0
-2417 -2462 0
-2417 -2463 0
-2417 -2464 0
-2417 -2465 0
-2417 -2466 0
-2417 -2467 0
-2417 -2468 0
-2417 -2469 0
-2417 -2470 0
-2417 -2471 0
-2417 -2472 0
-2417 -2473 0
-2417 -2474 0
-2417 -2475 0
-2417 -2476 0
-2418 -2419 0
-2418 -2420 0
-2418 -2421 0
-2418 -2422 0
-2418 -2423 0
-2418 -2424 0
-2418 -2425 0
-2418 -2426 0
-2418 -2427 0
-2418 -2428 0
-2418 -2429 0
-2418 -2430 0
-2418 -2431 0
-2418 -2432 0
-2418 -2433 0
-2418 -2434 0
-2418 -2435 0
-2418 -2436 0
-2418 -2437 0
-2418 -2438 0
-2418 -2439 0
-2418 -2440 0
-2418 -2441 0
-2418 -2442 0
-2418 -2443 0
-2418 -2444 0
-2418 -2445 0
-2418 -2446 0
-2418 -2447 0
-2418 -2448 0
-2418 -2449 0
-2418 -2450 0
-2418 -2451 0
-2418 -2452 0
-2418 -2453 0
-2418 -2454 0
-2418 -2455 0
-2418 -2456 0
-2418 -2457 0
-2418 -2458 0
-2418 -2459 0
-2418 -2460 0
-2418 -2461 0
-2418 -2462 0
-2418 -2463 0
-2418 -2464 0
-2418 -2465 0
-2418 -2466 0
-2418 -2467 0
-2418 -2468 0
-2418 -2469 0
-2418 -2470 0
-2418 -2471 0
-2418 -2472 0
-2418 -2473 0
-2418 -2474 0
-2418 -2475 0
-2418 -2476 0
-2419 -2420 0
-2419 -2421 0
-2419 -2422 0
-2419 -2423 0
-2419 -2424 0
-2419 -2425 0
-2419 -2426 0
-2419 -2427 0
-2419 -2428 0
-2419 -2429 0
-2419 -2430 0
-2419 -2431 0
-2419 -2432 0
-2419 -2433 0
-2419 -2434 0
-2419 -2435 0
-2419 -2436 0
-2419 -2437 0
-2419 -2438 0
-2419 -2439 0
-2419 -2440 0
-2419 -2441 0
-2419 -2442 0
-2419 -2443 0
-2419 -2444 0
-2419 -2445 0
-2419 -2446 0
-2419 -2447 0
-2419 -2448 0
-2419 -2449 0
-2419 -2450 0
-2419 -2451 0
-2419 -2452 0
-2419 -2453 0
-2419 -2454 0
-2419 -2455 0
-2419 -2456 0
-2419 -2457 0
-2419 -2458 0
-2419 -2459 0
-2419 -2460 0
-2419 -2461 0
-2419 -2462 0
-2419 -2463 0
-2419 -2464 0
-2419 -2465 0
-2419 -2466 0
-2419 -2467 0
-2419 -2468 0
-2419 -2469 0
-2419 -2470 0
-2419 -2471 0
-2419 -2472 0
-2419 -2473 0
-2419 -2474 0
-2419 -2475 0
-2419 -2476 0
-2420 -2421 0
-2420 -2422 0
-2420 -2423 0
-2420 -2424 0
-2420 -2425 0
-2420 -2426 0
-2420 -2427 0
-2420 -2428 0
-2420 -2429 0
-2420 -2430 0
-2420 -2431 0
-2420 -2432 0
-2420 -2433 0
-2420 -2434 0
-2420 -2435 0
-2420 -2436 0
-2420 -2437 0
-2420 -2438 0
-2420 -2439 0
-2420 -2440 0
-2420 -2441 0
-2420 -2442 0
-2420 -2443 0
-2420 -2444 0
-2420 -2445 0
-2420 -2446 0
-2420 -2447 0
-2420 -2448 0
-2420 -2449 0
-2420 -2450 0
-2420 -2451 0
-2420 -2452 0
-2420 -2453 0
-2420 -2454 0
-2420 -2455 0
-2420 -2456 0
-2420 -2457 0
-2420 -2458 0
-2420 -2459 0
-2420 -2460 0
-2420 -2461 0
-2420 -2462 0
-2420 -2463 0
-2420 -2464 0
-2420 -2465 0
-2420 -2466 0
-2420 -2467 0
-2420 -2468 0
-2420 -2469 0
-2420 -2470 0
-2420 -2471 0
-2420 -2472 0
-2420 -2473 0
-2420 -2474 0
-2420 -2475 0
-2420 -2476 0
-2421 -2422 0
-2421 -2423 0
-2421 -2424 0
-2421 -2425 0
-2421 -2426 0
-2421 -2427 0
-2421 -2428 0
-2421 -2429 0
-2421 -2430 0
-2421 -2431 0
-2421 -2432 0
-2421 -2433 0
-2421 -2434 0
-2421 -2435 0
-2421 -2436 0
-2421 -2437 0
-2421 -2438 0
-2421 -2439 0
-2421 -2440 0
-2421 -2441 0
-2421 -2442 0
-2421 -2443 0
-2421 -2444 0
-2421 -2445 0
-2421 -2446 0
-2421 -2447 0
-2421 -2448 0
-2421 -2449 0
-2421 -2450 0
-2421 -2451 0
-2421 -2452 0
-2421 -2453 0
-2421 -2454 0
-2421 -2455 0
-2421 -2456 0
-2421 -2457 0
-2421 -2458 0
-2421 -2459 0
-2421 -2460 0
-2421 -2461 0
-2421 -2462 0
-2421 -2463 0
-2421 -2464 0
-2421 -2465 0
-2421 -2466 0
-2421 -2467 0
-2421 -2468 0
-2421 -2469 0
-2421 -2470 0
-2421 -2471 0
-2421 -2472 0
-2421 -2473 0
-2421 -2474 0
-2421 -2475 0
-2421 -2476 0
-2422 -2423 0
-2422 -2424 0
-2422 -2425 0
-2422 -2426 0
-2422 -2427 0
-2422 -2428 0
-2422 -2429 0
-2422 -2430 0
-2422 -2431 0
-2422 -2432 0
-2422 -2433 0
-2422 -2434 0
-2422 -2435 0
-2422 -2436 0
-2422 -2437 0
-2422 -2438 0
-2422 -2439 0
-2422 -2440 0
-2422 -2441 0
-2422 -2442 0
-2422 -2443 0
-2422 -2444 0
-2422 -2445 0
-2422 -2446 0
-2422 -2447 0
-2422 -2448 0
-2422 -2449 0
-2422 -2450 0
-2422 -2451 0
-2422 -2452 0
-2422 -2453 0
-2422 -2454 0
-2422 -2455 0
-2422 -2456 0
-2422 -2457 0
-2422 -2458 0
-2422 -2459 0
-2422 -2460 0
-2422 -2461 0
-2422 -2462 0
-2422 -2463 0
-2422 -2464 0
-2422 -2465 0
-2422 -2466 0
-2422 -2467 0
-2422 -2468 0
-2422 -2469 0
-2422 -2470 0
-2422 -2471 0
-2422 -2472 0
-2422 -2473 0
-2422 -2474 0
-2422 -2475 0
-2422 -2476 0
-2423 -2424 0
-2423 -2425 0
-2423 -2426 0
-2423 -2427 0
-2423 -2428 0
-2423 -2429 0
-2423 -2430 0
-2423 -2431 0
-2423 -2432 0
-2423 -2433 0
-2423 -2434 0
-2423 -2435 0
-2423 -2436 0
-2423 -2437 0
-2423 -2438 0
-2423 -2439 0
-2423 -2440 0
-2423 -2441 0
-2423 -2442 0
-2423 -2443 0
-2423 -2444 0
-2423 -2445 0
-2423 -2446 0
-2423 -2447 0
-2423 -2448 0
-2423 -2449 0
-2423 -2450 0
-2423 -2451 0
-2423 -2452 0
-2423 -2453 0
-2423 -2454 0
-2423 -2455 0
-2423 -2456 0
-2423 -2457 0
-2423 -2458 0
-2423 -2459 0
-2423 -2460 0
-2423 -2461 0
-2423 -2462 0
-2423 -2463 0
-2423 -2464 0
-2423 -2465 0
-2423 -2466 0
-2423 -2467 0
-2423 -2468 0
-2423 -2469 0
-2423 -2470 0
-2423 -2471 0
-2423 -2472 0
-2423 -2473 0
-2423 -2474 0
-2423 -2475 0
-2423 -2476 0
-2424 -2425 0
-2424 -2426 0
-2424 -2427 0
-2424 -2428 0
-2424 -2429 0
-2424 -2430 0
-2424 -2431 0
-2424 -2432 0
-2424 -2433 0
-2424 -2434 0
-2424 -2435 0
-2424 -2436 0
-2424 -2437 0
-2424 -2438 0
-2424 -2439 0
-2424 -2440 0
-2424 -2441 0
-2424 -2442 0
-2424 -2443 0
-2424 -2444 0
-2424 -2445 0
-2424 -2446 0
-2424 -2447 0
-2424 -2448 0
-2424 -2449 0
-2424 -2450 0
-2424 -2451 0
-2424 -2452 0
-2424 -2453 0
-2424 -2454 0
-2424 -2455 0
-2424 -2456 0
-2424 -2457 0
-2424 -2458 0
-2424 -2459 0
-2424 -2460 0
-2424 -2461 0
-2424 -2462 0
-2424 -2463 0
-2424 -2464 0
-2424 -2465 0
-2424 -2466 0
-2424 -2467 0
-2424 -2468 0
-2424 -2469 0
-2424 -2470 0
-2424 -2471 0
-2424 -2472 0
-2424 -2473 0
-2424 -2474 0
-2424 -2475 0
-2424 -2476 0
-2425 -2426 0
-2425 -2427 0
-2425 -2428 0
-2425 -2429 0
-2425 -2430 0
-2425 -2431 0
-2425 -2432 0
-2425 -2433 0
-2425 -2434 0
-2425 -2435 0
-2425 -2436 0
-2425 -2437 0
-2425 -2438 0
-2425 -2439 0
-2425 -2440 0
-2425 -2441 0
-2425 -2442 0
-2425 -2443 0
-2425 -2444 0
-2425 -2445 0
-2425 -2446 0
-2425 -2447 0
-2425 -2448 0
-2425 -2449 0
-2425 -2450 0
-2425 -2451 0
-2425 -2452 0
-2425 -2453 0
-2425 -2454 0
-2425 -2455 0
-2425 -2456 0
-2425 -2457 0
-2425 -2458 0
-2425 -2459 0
-2425 -2460 0
-2425 -2461 0
-2425 -2462 0
-2425 -2463 0
-2425 -2464 0
-2425 -2465 0
-2425 -2466 0
-2425 -2467 0
-2425 -2468 0
-2425 -2469 0
-2425 -2470 0
-2425 -2471 0
-2425 -2472 0
-2425 -2473 0
-2425 -2474 0
-2425 -2475 0
-2425 -2476 0
-2426 -2427 0
-2426 -2428 0
-2426 -2429 0
-2426 -2430 0
-2426 -2431 0
-2426 -2432 0
-2426 -2433 0
-2426 -2434 0
-2426 -2435 0
-2426 -2436 0
-2426 -2437 0
-2426 -2438 0
-2426 -2439 0
-2426 -2440 0
-2426 -2441 0
-2426 -2442 0
-2426 -2443 0
-2426 -2444 0
-2426 -2445 0
-2426 -2446 0
-2426 -2447 0
-2426 -2448 0
-2426 -2449 0
-2426 -2450 0
-2426 -2451 0
-2426 -2452 0
-2426 -2453 0
-2426 -2454 0
-2426 -2455 0
-2426 -2456 0
-2426 -2457 0
-2426 -2458 0
-2426 -2459 0
-2426 -2460 0
-2426 -2461 0
-2426 -2462 0
-2426 -2463 0
-2426 -2464 0
-2426 -2465 0
-2426 -2466 0
-2426 -2467 0
-2426 -2468 0
-2426 -2469 0
-2426 -2470 0
-2426 -2471 0
-2426 -2472 0
-2426 -2473 0
-2426 -2474 0
-2426 -2475 0
-2426 -2476 0
-2427 -2428 0
-2427 -2429 0
-2427 -2430 0
-2427 -2431 0
-2427 -2432 0
-2427 -2433 0
-2427 -2434 0
-2427 -2435 0
-2427 -2436 0
-2427 -2437 0
-2427 -2438 0
-2427 -2439 0
-2427 -2440 0
-2427 -2441 0
-2427 -2442 0
-2427 -2443 0
-2427 -2444 0
-2427 -2445 0
-2427 -2446 0
-2427 -2447 0
-2427 -2448 0
-2427 -2449 0
-2427 -2450 0
-2427 -2451 0
-2427 -2452 0
-2427 -2453 0
-2427 -2454 0
-2427 -2455 0
-2427 -2456 0
-2427 -2457 0
-2427 -2458 0
-2427 -2459 0
-2427 -2460 0
-2427 -2461 0
-2427 -2462 0
-2427 -2463 0
-2427 -2464 0
-2427 -2465 0
-2427 -2466 0
-2427 -2467 0
-2427 -2468 0
-2427 -2469 0
-2427 -2470 0
-2427 -2471 0
-2427 -2472 0
-2427 -2473 0
-2427 -2474 0
-2427 -2475 0
-2427 -2476 0
-2428 -2429 0
-2428 -2430 0
-2428 -2431 0
-2428 -2432 0
-2428 -2433 0
-2428 -2434 0
-2428 -2435 0
-2428 -2436 0
-2428 -2437 0
-2428 -2438 0
-2428 -2439 0
-2428 -2440 0
-2428 -2441 0
-2428 -2442 0
-2428 -2443 0
-2428 -2444 0
-2428 -2445 0
-2428 -2446 0
-2428 -2447 0
-2428 -2448 0
-2428 -2449 0
-2428 -2450 0
-2428 -2451 0
-2428 -2452 0
-2428 -2453 0
-2428 -2454 0
-2428 -2455 0
-2428 -2456 0
-2428 -2457 0
-2428 -2458 0
-2428 -2459 0
-2428 -2460 0
-2428 -2461 0
-2428 -2462 0
-2428 -2463 0
-2428 -2464 0
-2428 -2465 0
-2428 -2466 0
-2428 -2467 0
-2428 -2468 0
-2428 -2469 0
-2428 -2470 0
-2428 -2471 0
-2428 -2472 0
-2428 -2473 0
-2428 -2474 0
-2428 -2475 0
-2428 -2476 0
-2429 -2430 0
-2429 -2431 0
-2429 -2432 0
-2429 -2433 0
-2429 -2434 0
-2429 -2435 0
-2429 -2436 0
-2429 -2437 0
-2429 -2438 0
-2429 -2439 0
-2429 -2440 0
-2429 -2441 0
-2429 -2442 0
-2429 -2443 0
-2429 -2444 0
-2429 -2445 0
-2429 -2446 0
-2429 -2447 0
-2429 -2448 0
-2429 -2449 0
-2429 -2450 0
-2429 -2451 0
-2429 -2452 0
-2429 -2453 0
-2429 -2454 0
-2429 -2455 0
-2429 -2456 0
-2429 -2457 0
-2429 -2458 0
-2429 -2459 0
-2429 -2460 0
-2429 -2461 0
-2429 -2462 0
-2429 -2463 0
-2429 -2464 0
-2429 -2465 0
-2429 -2466 0
-2429 -2467 0
-2429 -2468 0
-2429 -2469 0
-2429 -2470 0
-2429 -2471 0
-2429 -2472 0
-2429 -2473 0
-2429 -2474 0
-2429 -2475 0
-2429 -2476 0
-2430 -2431 0
-2430 -2432 0
-2430 -2433 0
-2430 -2434 0
-2430 -2435 0
-2430 -2436 0
-2430 -2437 0
-2430 -2438 0
-2430 -2439 0
-2430 -2440 0
-2430 -2441 0
-2430 -2442 0
-2430 -2443 0
-2430 -2444 0
-2430 -2445 0
-2430 -2446 0
-2430 -2447 0
-2430 -2448 0
-2430 -2449 0
-2430 -2450 0
-2430 -2451 0
-2430 -2452 0
-2430 -2453 0
-2430 -2454 0
-2430 -2455 0
-2430 -2456 0
-2430 -2457 0
-2430 -2458 0
-2430 -2459 0
-2430 -2460 0
-2430 -2461 0
-2430 -2462 0
-2430 -2463 0
-2430 -2464 0
-2430 -2465 0
-2430 -2466 0
-2430 -2467 0
-2430 -2468 0
-2430 -2469 0
-2430 -2470 0
-2430 -2471 0
-2430 -2472 0
-2430 -2473 0
-2430 -2474 0
-2430 -2475 0
-2430 -2476 0
-2431 -2432 0
-2431 -2433 0
-2431 -2434 0
-2431 -2435 0
-2431 -2436 0
-2431 -2437 0
-2431 -2438 0
-2431 -2439 0
-2431 -2440 0
-2431 -2441 0
-2431 -2442 0
-2431 -2443 0
-2431 -2444 0
-2431 -2445 0
-2431 -2446 0
-2431 -2447 0
-2431 -2448 0
-2431 -2449 0
-2431 -2450 0
-2431 -2451 0
-2431 -2452 0
-2431 -2453 0
-2431 -2454 0
-2431 -2455 0
-2431 -2456 0
-2431 -2457 0
-2431 -2458 0
-2431 -2459 0
-2431 -2460 0
-2431 -2461 0
-2431 -2462 0
-2431 -2463 0
-2431 -2464 0
-2431 -2465 0
-2431 -2466 0
-2431 -2467 0
-2431 -2468 0
-2431 -2469 0
-2431 -2470 0
-2431 -2471 0
-2431 -2472 0
-2431 -2473 0
-2431 -2474 0
-2431 -2475 0
-2431 -2476 0
-2432 -2433 0
-2432 -2434 0
-2432 -2435 0
-2432 -2436 0
-2432 -2437 0
-2432 -2438 0
-2432 -2439 0
-2432 -2440 0
-2432 -2441 0
-2432 -2442 0
-2432 -2443 0
-2432 -2444 0
-2432 -2445 0
-2432 -2446 0
-2432 -2447 0
-2432 -2448 0
-2432 -2449 0
-2432 -2450 0
-2432 -2451 0
-2432 -2452 0
-2432 -2453 0
-2432 -2454 0
-2432 -2455 0
-2432 -2456 0
-2432 -2457 0
-2432 -2458 0
-2432 -2459 0
-2432 -2460 0
-2432 -2461 0
-2432 -2462 0
-2432 -2463 0
-2432 -2464 0
-2432 -2465 0
-2432 -2466 0
-2432 -2467 0
-2432 -2468 0
-2432 -2469 0
-2432 -2470 0
-2432 -2471 0
-2432 -2472 0
-2432 -2473 0
-2432 -2474 0
-2432 -2475 0
-2432 -2476 0
-2433 -2434 0
-2433 -2435 0
-2433 -2436 0
-2433 -2437 0
-2433 -2438 0
-2433 -2439 0
-2433 -2440 0
-2433 -2441 0
-2433 -2442 0
-2433 -2443 0
-2433 -2444 0
-2433 -2445 0
-2433 -2446 0
-2433 -2447 0
-2433 -2448 0
-2433 -2449 0
-2433 -2450 0
-2433 -2451 0
-2433 -2452 0
-2433 -2453 0
-2433 -2454 0
-2433 -2455 0
-2433 -2456 0
-2433 -2457 0
-2433 -2458 0
-2433 -2459 0
-2433 -2460 0
-2433 -2461 0
-2433 -2462 0
-2433 -2463 0
-2433 -2464 0
-2433 -2465 0
-2433 -2466 0
-2433 -2467 0
-2433 -2468 0
-2433 -2469 0
-2433 -2470 0
-2433 -2471 0
-2433 -2472 0
-2433 -2473 0
-2433 -2474 0
-2433 -2475 0
-2433 -2476 0
-2434 -2435 0
-2434 -2436 0
-2434 -2437 0
-2434 -2438 0
-2434 -2439 0
-2434 -2440 0
-2434 -2441 0
-2434 -2442 0
-2434 -2443 0
-2434 -2444 0
-2434 -2445 0
-2434 -2446 0
-2434 -2447 0
-2434 -2448 0
-2434 -2449 0
-2434 -2450 0
-2434 -2451 0
-2434 -2452 0
-2434 -2453 0
-2434 -2454 0
-2434 -2455 0
-2434 -2456 0
-2434 -2457 0
-2434 -2458 0
-2434 -2459 0
-2434 -2460 0
-2434 -2461 0
-2434 -2462 0
-2434 -2463 0
-2434 -2464 0
-2434 -2465 0
-2434 -2466 0
-2434 -2467 0
-2434 -2468 0
-2434 -2469 0
-2434 -2470 0
-2434 -2471 0
-2434 -2472 0
-2434 -2473 0
-2434 -2474 0
-2434 -2475 0
-2434 -2476 0
-2435 -2436 0
-2435 -2437 0
-2435 -2438 0
-2435 -2439 0
-2435 -2440 0
-2435 -2441 0
-2435 -2442 0
-2435 -2443 0
-2435 -2444 0
-2435 -2445 0
-2435 -2446 0
-2435 -2447 0
-2435 -2448 0
-2435 -2449 0
-2435 -2450 0
-2435 -2451 0
-2435 -2452 0
-2435 -2453 0
-2435 -2454 0
-2435 -2455 0
-2435 -2456 0
-2435 -2457 0
-2435 -2458 0
-2435 -2459 0
-2435 -2460 0
-2435 -2461 0
-2435 -2462 0
-2435 -2463 0
-2435 -2464 0
-2435 -2465 0
-2435 -2466 0
-2435 -2467 0
-2435 -2468 0
-2435 -2469 0
-2435 -2470 0
-2435 -2471 0
-2435 -2472 0
-2435 -2473 0
-2435 -2474 0
-2435 -2475 0
-2435 -2476 0
-2436 -2437 0
-2436 -2438 0
-2436 -2439 0
-2436 -2440 0
-2436 -2441 0
-2436 -2442 0
-2436 -2443 0
-2436 -2444 0
-2436 -2445 0
-2436 -2446 0
-2436 -2447 0
-2436 -2448 0
-2436 -2449 0
-2436 -2450 0
-2436 -2451 0
-2436 -2452 0
-2436 -2453 0
-2436 -2454 0
-2436 -2455 0
-2436 -2456 0
-2436 -2457 0
-2436 -2458 0
-2436 -2459 0
-2436 -2460 0
-2436 -2461 0
-2436 -2462 0
-2436 -2463 0
-2436 -2464 0
-2436 -2465 0
-2436 -2466 0
-2436 -2467 0
-2436 -2468 0
-2436 -2469 0
-2436 -2470 0
-2436 -2471 0
-2436 -2472 0
-2436 -2473 0
-2436 -2474 0
-2436 -2475 0
-2436 -2476 0
-2437 -2438 0
-2437 -2439 0
-2437 -2440 0
-2437 -2441 0
-2437 -2442 0
-2437 -2443 0
-2437 -2444 0
-2437 -2445 0
-2437 -2446 0
-2437 -2447 0
-2437 -2448 0
-2437 -2449 0
-2437 -2450 0
-2437 -2451 0
-2437 -2452 0
-2437 -2453 0
-2437 -2454 0
-2437 -2455 0
-2437 -2456 0
-2437 -2457 0
-2437 -2458 0
-2437 -2459 0
-2437 -2460 0
-2437 -2461 0
-2437 -2462 0
-2437 -2463 0
-2437 -2464 0
-2437 -2465 0
-2437 -2466 0
-2437 -2467 0
-2437 -2468 0
-2437 -2469 0
-2437 -2470 0
-2437 -2471 0
-2437 -2472 0
-2437 -2473 0
-2437 -2474 0
-2437 -2475 0
-2437 -2476 0
-2438 -2439 0
-2438 -2440 0
-2438 -2441 0
-2438 -2442 0
-2438 -2443 0
-2438 -2444 0
-2438 -2445 0
-2438 -2446 0
-2438 -2447 0
-2438 -2448 0
-2438 -2449 0
-2438 -2450 0
-2438 -2451 0
-2438 -2452 0
-2438 -2453 0
-2438 -2454 0
-2438 -2455 0
-2438 -2456 0
-2438 -2457 0
-2438 -2458 0
-2438 -2459 0
-2438 -2460 0
-2438 -2461 0
-2438 -2462 0
-2438 -2463 0
-2438 -2464 0
-2438 -2465 0
-2438 -2466 0
-2438 -2467 0
-2438 -2468 0
-2438 -2469 0
-2438 -2470 0
-2438 -2471 0
-2438 -2472 0
-2438 -2473 0
-2438 -2474 0
-2438 -2475 0
-2438 -2476 0
-2439 -2440 0
-2439 -2441 0
-2439 -2442 0
-2439 -2443 0
-2439 -2444 0
-2439 -2445 0
-2439 -2446 0
-2439 -2447 0
-2439 -2448 0
-2439 -2449 0
-2439 -2450 0
-2439 -2451 0
-2439 -2452 0
-2439 -2453 0
-2439 -2454 0
-2439 -2455 0
-2439 -2456 0
-2439 -2457 0
-2439 -2458 0
-2439 -2459 0
-2439 -2460 0
-2439 -2461 0
-2439 -2462 0
-2439 -2463 0
-2439 -2464 0
-2439 -2465 0
-2439 -2466 0
-2439 -2467 0
-2439 -2468 0
-2439 -2469 0
-2439 -2470 0
-2439 -2471 0
-2439 -2472 0
-2439 -2473 0
-2439 -2474 0
-2439 -2475 0
-2439 -2476 0
-2440 -2441 0
-2440 -2442 0
-2440 -2443 0
-2440 -2444 0
-2440 -2445 0
-2440 -2446 0
-2440 -2447 0
-2440 -2448 0
-2440 -2449 0
-2440 -2450 0
-2440 -2451 0
-2440 -2452 0
-2440 -2453 0
-2440 -2454 0
-2440 -2455 0
-2440 -2456 0
-2440 -2457 0
-2440 -2458 0
-2440 -2459 0
-2440 -2460 0
-2440 -2461 0
-2440 -2462 0
-2440 -2463 0
-2440 -2464 0
-2440 -2465 0
-2440 -2466 0
-2440 -2467 0
-2440 -2468 0
-2440 -2469 0
-2440 -2470 0
-2440 -2471 0
-2440 -2472 0
-2440 -2473 0
-2440 -2474 0
-2440 -2475 0
-2440 -2476 0
-2441 -2442 0
-2441 -2443 0
-2441 -2444 0
-2441 -2445 0
-2441 -2446 0
-2441 -2447 0
-2441 -2448 0
-2441 -2449 0
-2441 -2450 0
-2441 -2451 0
-2441 -2452 0
-2441 -2453 0
-2441 -2454 0
-2441 -2455 0
-2441 -2456 0
-2441 -2457 0
-2441 -2458 0
-2441 -2459 0
-2441 -2460 0
-2441 -2461 0
-2441 -2462 0
-2441 -2463 0
-2441 -2464 0
-2441 -2465 0
-2441 -2466 0
-2441 -2467 0
-2441 -2468 0
-2441 -2469 0
-2441 -2470 0
-2441 -2471 0
-2441 -2472 0
-2441 -2473 0
-2441 -2474 0
-2441 -2475 0
-2441 -2476 0
-2442 -2443 0
-2442 -2444 0
-2442 -2445 0
-2442 -2446 0
-2442 -2447 0
-2442 -2448 0
-2442 -2449 0
-2442 -2450 0
-2442 -2451 0
-2442 -2452 0
-2442 -2453 0
-2442 -2454 0
-2442 -2455 0
-2442 -2456 0
-2442 -2457 0
-2442 -2458 0
-2442 -2459 0
-2442 -2460 0
-2442 -2461 0
-2442 -2462 0
-2442 -2463 0
-2442 -2464 0
-2442 -2465 0
-2442 -2466 0
-2442 -2467 0
-2442 -2468 0
-2442 -2469 0
-2442 -2470 0
-2442 -2471 0
-2442 -2472 0
-2442 -2473 0
-2442 -2474 0
-2442 -2475 0
-2442 -2476 0
-2443 -2444 0
-2443 -2445 0
-2443 -2446 0
-2443 -2447 0
-2443 -2448 0
-2443 -2449 0
-2443 -2450 0
-2443 -2451 0
-2443 -2452 0
-2443 -2453 0
-2443 -2454 0
-2443 -2455 0
-2443 -2456 0
-2443 -2457 0
-2443 -2458 0
-2443 -2459 0
-2443 -2460 0
-2443 -2461 0
-2443 -2462 0
-2443 -2463 0
-2443 -2464 0
-2443 -2465 0
-2443 -2466 0
-2443 -2467 0
-2443 -2468 0
-2443 -2469 0
-2443 -2470 0
-2443 -2471 0
-2443 -2472 0
-2443 -2473 0
-2443 -2474 0
-2443 -2475 0
-2443 -2476 0
-2444 -2445 0
-2444 -2446 0
-2444 -2447 0
-2444 -2448 0
-2444 -2449 0
-2444 -2450 0
-2444 -2451 0
-2444 -2452 0
-2444 -2453 0
-2444 -2454 0
-2444 -2455 0
-2444 -2456 0
-2444 -2457 0
-2444 -2458 0
-2444 -2459 0
-2444 -2460 0
-2444 -2461 0
-2444 -2462 0
-2444 -2463 0
-2444 -2464 0
-2444 -2465 0
-2444 -2466 0
-2444 -2467 0
-2444 -2468 0
-2444 -2469 0
-2444 -2470 0
-2444 -2471 0
-2444 -2472 0
-2444 -2473 0
-2444 -2474 0
-2444 -2475 0
-2444 -2476 0
-2445 -2446 0
-2445 -2447 0
-2445 -2448 0
-2445 -2449 0
-2445 -2450 0
-2445 -2451 0
-2445 -2452 0
-2445 -2453 0
-2445 -2454 0
-2445 -2455 0
-2445 -2456 0
-2445 -2457 0
-2445 -2458 0
-2445 -2459 0
-2445 -2460 0
-2445 -2461 0
-2445 -2462 0
-2445 -2463 0
-2445 -2464 0
-2445 -2465 0
-2445 -2466 0
-2445 -2467 0
-2445 -2468 0
-2445 -2469 0
-2445 -2470 0
-2445 -2471 0
-2445 -2472 0
-2445 -2473 0
-2445 -2474 0
-2445 -2475 0
-2445 -2476 0
-2446 -2447 0
-2446 -2448 0
-2446 -2449 0
-2446 -2450 0
-2446 -2451 0
-2446 -2452 0
-2446 -2453 0
-2446 -2454 0
-2446 -2455 0
-2446 -2456 0
-2446 -2457 0
-2446 -2458 0
-2446 -2459 0
-2446 -2460 0
-2446 -2461 0
-2446 -2462 0
-2446 -2463 0
-2446 -2464 0
-2446 -2465 0
-2446 -2466 0
-2446 -2467 0
-2446 -2468 0
-2446 -2469 0
-2446 -2470 0
-2446 -2471 0
-2446 -2472 0
-2446 -2473 0
-2446 -2474 0
-2446 -2475 0
-2446 -2476 0
-2447 -2448 0
-2447 -2449 0
-2447 -2450 0
-2447 -2451 0
-2447 -2452 0
-2447 -2453 0
-2447 -2454 0
-2447 -2455 0
-2447 -2456 0
-2447 -2457 0
-2447 -2458 0
-2447 -2459 0
-2447 -2460 0
-2447 -2461 0
-2447 -2462 0
-2447 -2463 0
-2447 -2464 0
-2447 -2465 0
-2447 -2466 0
-2447 -2467 0
-2447 -2468 0
-2447 -2469 0
-2447 -2470 0
-2447 -2471 0
-2447 -2472 0
-2447 -2473 0
-2447 -2474 0
-2447 -2475 0
-2447 -2476 0
-2448 -2449 0
-2448 -2450 0
-2448 -2451 0
-2448 -2452 0
-2448 -2453 0
-2448 -2454 0
-2448 -2455 0
-2448 -2456 0
-2448 -2457 0
-2448 -2458 0
-2448 -2459 0
-2448 -2460 0
-2448 -2461 0
-2448 -2462 0
-2448 -2463 0
-2448 -2464 0
-2448 -2465 0
-2448 -2466 0
-2448 -2467 0
-2448 -2468 0
-2448 -2469 0
-2448 -2470 0
-2448 -2471 0
-2448 -2472 0
-2448 -2473 0
-2448 -2474 0
-2448 -2475 0
-2448 -2476 0
-2449 -2450 0
-2449 -2451 0
-2449 -2452 0
-2449 -2453 0
-2449 -2454 0
-2449 -2455 0
-2449 -2456 0
-2449 -2457 0
-2449 -2458 0
-2449 -2459 0
-2449 -2460 0
-2449 -2461 0
-2449 -2462 0
-2449 -2463 0
-2449 -2464 0
-2449 -2465 0
-2449 -2466 0
-2449 -2467 0
-2449 -2468 0
-2449 -2469 0
-2449 -2470 0
-2449 -2471 0
-2449 -2472 0
-2449 -2473 0
-2449 -2474 0
-2449 -2475 0
-2449 -2476 0
-2450 -2451 0
-2450 -2452 0
-2450 -2453 0
-2450 -2454 0
-2450 -2455 0
-2450 -2456 0
-2450 -2457 0
-2450 -2458 0
-2450 -2459 0
-2450 -2460 0
-2450 -2461 0
-2450 -2462 0
-2450 -2463 0
-2450 -2464 0
-2450 -2465 0
-2450 -2466 0
-2450 -2467 0
-2450 -2468 0
-2450 -2469 0
-2450 -2470 0
-2450 -2471 0
-2450 -2472 0
-2450 -2473 0
-2450 -2474 0
-2450 -2475 0
-2450 -2476 0
-2451 -2452 0
-2451 -2453 0
-2451 -2454 0
-2451 -2455 0
-2451 -2456 0
-2451 -2457 0
-2451 -2458 0
-2451 -2459 0
-2451 -2460 0
-2451 -2461 0
-2451 -2462 0
-2451 -2463 0
-2451 -2464 0
-2451 -2465 0
-2451 -2466 0
-2451 -2467 0
-2451 -2468 0
-2451 -2469 0
-2451 -2470 0
-2451 -2471 0
-2451 -2472 0
-2451 -2473 0
-2451 -2474 0
-2451 -2475 0
-2451 -2476 0
-2452 -2453 0
-2452 -2454 0
-2452 -2455 0
-2452 -2456 0
-2452 -2457 0
-2452 -2458 0
-2452 -2459 0
-2452 -2460 0
-2452 -2461 0
-2452 -2462 0
-2452 -2463 0
-2452 -2464 0
-2452 -2465 0
-2452 -2466 0
-2452 -2467 0
-2452 -2468 0
-2452 -2469 0
-2452 -2470 0
-2452 -2471 0
-2452 -2472 0
-2452 -2473 0
-2452 -2474 0
-2452 -2475 0
-2452 -2476 0
-2453 -2454 0
-2453 -2455 0
-2453 -2456 0
-2453 -2457 0
-2453 -2458 0
-2453 -2459 0
-2453 -2460 0
-2453 -2461 0
-2453 -2462 0
-2453 -2463 0
-2453 -2464 0
-2453 -2465 0
-2453 -2466 0
-2453 -2467 0
-2453 -2468 0
-2453 -2469 0
-2453 -2470 0
-2453 -2471 0
-2453 -2472 0
-2453 -2473 0
-2453 -2474 0
-2453 -2475 0
-2453 -2476 0
-2454 -2455 0
-2454 -2456 0
-2454 -2457 0
-2454 -2458 0
-2454 -2459 0
-2454 -2460 0
-2454 -2461 0
-2454 -2462 0
-2454 -2463 0
-2454 -2464 0
-2454 -2465 0
-2454 -2466 0
-2454 -2467 0
-2454 -2468 0
-2454 -2469 0
-2454 -2470 0
-2454 -2471 0
-2454 -2472 0
-2454 -2473 0
-2454 -2474 0
-2454 -2475 0
-2454 -2476 0
-2455 -2456 0
-2455 -2457 0
-2455 -2458 0
-2455 -2459 0
-2455 -2460 0
-2455 -2461 0
-2455 -2462 0
-2455 -2463 0
-2455 -2464 0
-2455 -2465 0
-2455 -2466 0
-2455 -2467 0
-2455 -2468 0
-2455 -2469 0
-2455 -2470 0
-2455 -2471 0
-2455 -2472 0
-2455 -2473 0
-2455 -2474 0
-2455 -2475 0
-2455 -2476 0
-2456 -2457 0
-2456 -2458 0
-2456 -2459 0
-2456 -2460 0
-2456 -2461 0
-2456 -2462 0
-2456 -2463 0
-2456 -2464 0
-2456 -2465 0
-2456 -2466 0
-2456 -2467 0
-2456 -2468 0
-2456 -2469 0
-2456 -2470 0
-2456 -2471 0
-2456 -2472 0
-2456 -2473 0
-2456 -2474 0
-2456 -2475 0
-2456 -2476 0
-2457 -2458 0
-2457 -2459 0
-2457 -2460 0
-2457 -2461 0
-2457 -2462 0
-2457 -2463 0
-2457 -2464 0
-2457 -2465 0
-2457 -2466 0
-2457 -2467 0
-2457 -2468 0
-2457 -2469 0
-2457 -2470 0
-2457 -2471 0
-2457 -2472 0
-2457 -2473 0
-2457 -2474 0
-2457 -2475 0
-2457 -2476 0
-2458 -2459 0
-2458 -2460 0
-2458 -2461 0
-2458 -2462 0
-2458 -2463 0
-2458 -2464 0
-2458 -2465 0
-2458 -2466 0
-2458 -2467 0
-2458 -2468 0
-2458 -2469 0
-2458 -2470 0
-2458 -2471 0
-2458 -2472 0
-2458 -2473 0
-2458 -2474 0
-2458 -2475 0
-2458 -2476 0
-2459 -2460 0
-2459 -2461 0
-2459 -2462 0
-2459 -2463 0
-2459 -2464 0
-2459 -2465 0
-2459 -2466 0
-2459 -2467 0
-2459 -2468 0
-2459 -2469 0
-2459 -2470 0
-2459 -2471 0
-2459 -2472 0
-2459 -2473 0
-2459 -2474 0
-2459 -2475 0
-2459 -2476 0
-2460 -2461 0
-2460 -2462 0
-2460 -2463 0
-2460 -2464 0
-2460 -2465 0
-2460 -2466 0
-2460 -2467 0
-2460 -2468 0
-2460 -2469 0
-2460 -2470 0
-2460 -2471 0
-2460 -2472 0
-2460 -2473 0
-2460 -2474 0
-2460 -2475 0
-2460 -2476 0
-2461 -2462 0
-2461 -2463 0
-2461 -2464 0
-2461 -2465 0
-2461 -2466 0
-2461 -2467 0
-2461 -2468 0
-2461 -2469 0
-2461 -2470 0
-2461 -2471 0
-2461 -2472 0
-2461 -2473 0
-2461 -2474 0
-2461 -2475 0
-2461 -2476 0
-2462 -2463 0
-2462 -2464 0
-2462 -2465 0
-2462 -2466 0
-2462 -2467 0
-2462 -2468 0
-2462 -2469 0
-2462 -2470 0
-2462 -2471 0
-2462 -2472 0
-2462 -2473 0
-2462 -2474 0
-2462 -2475 0
-2462 -2476 0
-2463 -2464 0
-2463 -2465 0
-2463 -2466 0
-2463 -2467 0
-2463 -2468 0
-2463 -2469 0
-2463 -2470 0
-2463 -2471 0
-2463 -2472 0
-2463 -2473 0
-2463 -2474 0
-2463 -2475 0
-2463 -2476 0
-2464 -2465 0
-2464 -2466 0
-2464 -2467 0
-2464 -2468 0
-2464 -2469 0
-2464 -2470 0
-2464 -2471 0
-2464 -2472 0
-2464 -2473 0
-2464 -2474 0
-2464 -2475 0
-2464 -2476 0
-2465 -2466 0
-2465 -2467 0
-2465 -2468 0
-2465 -2469 0
-2465 -2470 0
-2465 -2471 0
-2465 -2472 0
-2465 -2473 0
-2465 -2474 0
-2465 -2475 0
-2465 -2476 0
-2466 -2467 0
-2466 -2468 0
-2466 -2469 0
-2466 -2470 0
-2466 -2471 0
-2466 -2472 0
-2466 -2473 0
-2466 -2474 0
-2466 -2475 0
-2466 -2476 0
-2467 -2468 0
-2467 -2469 0
-2467 -2470 0
-2467 -2471 0
-2467 -2472 0
-2467 -2473 0
-2467 -2474 0
-2467 -2475 0
-2467 -2476 0
-2468 -2469 0
-2468 -2470 0
-2468 -2471 0
-2468 -2472 0
-2468 -2473 0
-2468 -2474 0
-2468 -2475 0
-2468 -2476 0
-2469 -2470 0
-2469 -2471 0
-2469 -2472 0
-2469 -2473 0
-2469 -2474 0
-2469 -2475 0
-2469 -2476 0
-2470 -2471 0
-2470 -2472 0
-2470 -2473 0
-2470 -2474 0
-2470 -2475 0
-2470 -2476 0
-2471 -2472 0
-2471 -2473 0
-2471 -2474 0
-2471 -2475 0
-2471 -2476 0
-2472 -2473 0
-2472 -2474 0
-2472 -2475 0
-2472 -2476 0
-2473 -2474 0
-2473 -2475 0
-2473 -2476 0
-2474 -2475 0
-2474 -2476 0
-2475 -2476 0
-2342 81 2410 0
-2342 -81 2409 0
-2343 81 2411 0
-2343 -81 2410 0
-2344 81 2412 0
-2344 -81 2411 0
-2345 81 2413 0
-2345 -81 2412 0
-2346 81 2414 0
-2346 -81 2413 0
-2347 81 2415 0
-2347 -81 2414 0
-2348 81 2416 0
-2348 -81 2415 0
-2349 81 2417 0
-2349 -81 2416 0
-2350 81 2418 0
-2350 -81 2417 0
-2351 81 2419 0
-2351 -81 2418 0
-2352 81 2420 0
-2352 -81 2419 0
-2353 81 2421 0
-2353 -81 2420 0
-2354 81 2422 0
-2354 -81 2421 0
-2355 81 2423 0
-2355 -81 2422 0
-2356 81 2424 0
-2356 -81 2423 0
-2357 81 2425 0
-2357 -81 2424 0
-2358 81 2426 0
-2358 -81 2425 0
-2359 81 2427 0
-2359 -81 2426 0
-2360 81 2428 0
-2360 -81 2427 0
-2361 81 2429 0
-2361 -81 2428 0
-2362 81 2430 0
-2362 -81 2429 0
-2363 81 2431 0
-2363 -81 2430 0
-2364 81 2432 0
-2364 -81 2431 0
-2365 81 2433 0
-2365 -81 2432 0
-2366 81 2434 0
-2366 -81 2433 0
-2367 81 2435 0
-2367 -81 2434 0
-2368 81 2436 0
-2368 -81 2435 0
-2369 81 2437 0
-2369 -81 2436 0
-2370 81 2438 0
-2370 -81 2437 0
-2371 81 2439 0
-2371 -81 2438 0
-2372 81 2440 0
-2372 -81 2439 0
-2373 81 2441 0
-2373 -81 2440 0
-2374 81 2442 0
-2374 -81 2441 0
-2375 81 2443 0
-2375 -81 2442 0
-2376 81 2444 0
-2376 -81 2443 0
-2377 81 2445 0
-2377 -81 2444 0
-2378 81 2446 0
-2378 -81 2445 0
-2379 81 2447 0
-2379 -81 2446 0
-2380 81 2448 0
-2380 -81 2447 0
-2381 81 2449 0
-2381 -81 2448 0
-2382 81 2450 0
-2382 -81 2449 0
-2383 81 2451 0
-2383 -81 2450 0
-2384 81 2452 0
-2384 -81 2451 0
-2385 81 2453 0
-2385 -81 2452 0
-2386 81 2454 0
-2386 -81 2453 0
-2387 81 2455 0
-2387 -81 2454 0
-2388 81 2456 0
-2388 -81 2455 0
-2389 81 2457 0
-2389 -81 2456 0
-2390 81 2458 0
-2390 -81 2457 0
-2391 81 2459 0
-2391 -81 2458 0
-2392 81 2460 0
-2392 -81 2459 0
-2393 81 2461 0
-2393 -81 2460 0
-2394 81 2462 0
-2394 -81 2461 0
-2395 81 2463 0
-2395 -81 2462 0
-2396 81 2464 0
-2396 -81 2463 0
-2397 81 2465 0
-2397 -81 2464 0
-2398 81 2466 0
-2398 -81 2465 0
-2399 81 2467 0
-2399 -81 2466 0
-2400 81 2468 0
-2400 -81 2467 0
-2401 81 2469 0
-2401 -81 2468 0
-2402 81 2470 0
-2402 -81 2469 0
-2403 81 2471 0
-2403 -81 2470 0
-2404 81 2472 0
-2404 -81 2471 0
-2405 81 2473 0
-2405 -81 2472 0
-2406 81 2474 0
-2406 -81 2473 0
-2407 81 2475 0
-2407 -81 2474 0
-2408 81 2476 0
-2408 -81 2475 0
2477 2478 2479 2480 2481 2482 2483 2484 2485 2486 2487 2488 2489 2490 2491 2492 2493 2494 2495 2496 2497 2498 2499 2500 2501 2502 2503 2504 2505 2506 2507 2508 2509 2510 2511 2512 2513 2514 2515 2516 2517 2518 2519 2520 2521 2522 2523 2524 2525 2526 2527 2528 2529 2530 2531 2532 2533 2534 2535 2536 2537 2538 2539 2540 2541 2542 2543 2544 2545 0
-2477 -2478 0
-2477 -2479 0
-2477 -2480 0
-2477 -2481 0
-2477 -2482 0
-2477 -2483 0
-2477 -2484 0
-2477 -2485 0
-2477 -2486 0
-2477 -2487 0
-2477 -2488 0
-2477 -2489 0
-2477 -2490 0
-2477 -2491 0
-2477 -2492 0
-2477 -2493 0
-2477 -2494 0
-2477 -2495 0
-2477 -2496 0
-2477 -2497 0
-2477 -2498 0
-2477 -2499 0
-2477 -2500 0
-2477 -2501 0
-2477 -2502 0
-2477 -2503 0
-2477 -2504 0
-2477 -2505 0
-2477 -2506 0
-2477 -2507 0
-2477 -2508 0
-2477 -2509 0
-2477 -2510 0
-2477 -2511 0
-2477 -2512 0
-2477 -2513 0
-2477 -2514 0
-2477 -2515 0
-2477 -2516 0
-2477 -2517 0
-2477 -2518 0
-2477 -2519 0
-2477 -2520 0
-2477 -2521 0
-2477 -2522 0
-2477 -2523 0
-2477 -2524 0
-2477 -2525 0
-2477 -2526 0
-2477 -2527 0
-2477 -2528 0
-2477 -2529 0
-2477 -2530 0
-2477 -2531 0
-2477 -2532 0
-2477 -2533 0
-2477 -2534 0
-2477 -2535 0
-2477 -2536 0
-2477 -2537 0
-2477 -2538 0
-2477 -2539 0
-2477 -2540 0
-2477 -2541 0
-2477 -2542 0
-2477 -2543 0
-2477 -2544 0
-2477 -2545 0
-2478 -2479 0
-2478 -2480 0
-2478 -2481 0
-2478 -2482 0
-2478 -2483 0
-2478 -2484 0
-2478 -2485 0
-2478 -2486 0
-2478 -2487 0
-2478 -2488 0
-2478 -2489 0
-2478 -2490 0
-2478 -2491 0
-2478 -2492 0
-2478 -2493 0
-2478 -2494 0
-2478 -2495 0
-2478 -2496 0
-2478 -2497 0
-2478 -2498 0
-2478 -2499 0
-2478 -2500 0
-2478 -2501 0
-2478 -2502 0
-2478 -2503 0
-2478 -2504 0
-2478 -2505 0
-2478 -2506 0
-2478 -2507 0
-2478 -2508 0
-2478 -2509 0
-2478 -2510 0
-2478 -2511 0
-2478 -2512 0
-2478 -2513 0
-2478 -2514 0
-2478 -2515 0
-2478 -2516 0
-2478 -2517 0
-2478 -2518 0
-2478 -2519 0
-2478 -2520 0
-2478 -2521 0
-2478 -2522 0
-2478 -2523 0
-2478 -2524 0
-2478 -2525 0
-2478 -2526 0
-2478 -2527 0
-2478 -2528 0
-2478 -2529 0
-2478 -2530 0
-2478 -2531 0
-2478 -2532 0
-2478 -2533 0
-2478 -2534 0
-2478 -2535 0
-2478 -2536 0
-2478 -2537 0
-2478 -2538 0
-2478 -2539 0
-2478 -2540 0
-2478 -2541 0
-2478 -2542 0
-2478 -2543 0
-2478 -2544 0
-2478 -2545 0
-2479 -2480 0
-2479 -2481 0
-2479 -2482 0
-2479 -2483 0
-2479 -2484 0
-2479 -2485 0
-2479 -2486 0
-2479 -2487 0
-2479 -2488 0
-2479 -2489 0
-2479 -2490 0
-2479 -2491 0
-2479 -2492 0
-2479 -2493 0
-2479 -2494 0
-2479 -2495 0
-2479 -2496 0
-2479 -2497 0
-2479 -2498 0
-2479 -2499 0
-2479 -2500 0
-2479 -2501 0
-2479 -2502 0
-2479 -2503 0
-2479 -2504 0
-2479 -2505 0
-2479 -2506 0
-2479 -2507 0
-2479 -2508 0
-2479 -2509 0
-2479 -2510 0
-2479 -2511 0
-2479 -2512 0
-2479 -2513 0
-2479 -2514 0
-2479 -2515 0
-2479 -2516 0
-2479 -2517 0
-2479 -2518 0
-2479 -2519 0
-2479 -2520 0
-2479 -2521 0
-2479 -2522 0
-2479 -2523 0
-2479 -2524 0
-2479 -2525 0
-2479 -2526 0
-2479 -2527 0
-2479 -2528 0
-2479 -2529 0
-2479 -2530 0
-2479 -2531 0
-2479 -2532 0
-2479 -2533 0
-2479 -2534 0
-2479 -2535 0
-2479 -2536 0
-2479 -2537 0
-2479 -2538 0
-2479 -2539 0
-2479 -2540 0
-2479 -2541 0
-2479 -2542 0
-2479 -2543 0
-2479 -2544 0
-2479 -2545 0
-2480 -2481 0
-2480 -2482 0
-2480 -2483 0
-2480 -2484 0
-2480 -2485 0
-2480 -2486 0
-2480 -2487 0
-2480 -2488 0
-2480 -2489 0
-2480 -2490 0
-2480 -2491 0
-2480 -2492 0
-2480 -2493 0
-2480 -2494 0
-2480 -2495 0
-2480 -2496 0
-2480 -2497 0
-2480 -2498 0
-2480 -2499 0
-2480 -2500 0
-2480 -2501 0
-2480 -2502 0
-2480 -2503 0
-2480 -2504 0
-2480 -2505 0
-2480 -2506 0
-2480 -2507 0
-2480 -2508 0
-2480 -2509 0
-2480 -2510 0
-2480 -2511 0
-2480 -2512 0
-2480 -2513 0
-2480 -2514 0
-2480 -2515 0
-2480 -2516 0
-2480 -2517 0
-2480 -2518 0
-2480 -2519 0
-2480 -2520 0
-2480 -2521 0
-2480 -2522 0
-2480 -2523 0
-2480 -2524 0
-2480 -2525 0
-2480 -2526 0
-2480 -2527 0
-2480 -2528 0
-2480 -2529 0
-2480 -2530 0
-2480 -2531 0
-2480 -2532 0
-2480 -2533 0
-2480 -2534 0
-2480 -2535 0
-2480 -2536 0
-2480 -2537 0
-2480 -2538 0
-2480 -2539 0
-2480 -2540 0
-2480 -2541 0
-2480 -2542 0
-2480 -2543 0
-2480 -2544 0
-2480 -2545 0
-2481 -2482 0
-2481 -2483 0
-2481 -2484 0
-2481 -2485 0
-2481 -2486 0
-2481 -2487 0
-2481 -2488 0
-2481 -2489 0
-2481 -2490 0
-2481 -2491 0
-2481 -2492 0
-2481 -2493 0
-2481 -2494 0
-2481 -2495 0
-2481 -2496 0
-2481 -2497 0
-2481 -2498 0
-2481 -2499 0
-2481 -2500 0
-2481 -2501 0
-2481 -2502 0
-2481 -2503 0
-2481 -2504 0
-2481 -2505 0
-2481 -2506 0
-2481 -2507 0
-2481 -2508 0
-2481 -2509 0
-2481 -2510 0
-2481 -2511 0
-2481 -2512 0
-2481 -2513 0
-2481 -2514 0
-2481 -2515 0
-2481 -2516 0
-2481 -2517 0
-2481 -2518 0
-2481 -2519 0
-2481 -2520 0
-2481 -2521 0
-2481 -2522 0
-2481 -2523 0
-2481 -2524 0
-2481 -2525 0
-2481 -2526 0
-2481 -2527 0
-2481 -2528 0
-2481 -2529 0
-2481 -2530 0
-2481 -2531 0
-2481 -2532 0
-2481 -2533 0
-2481 -2534 0
-2481 -2535 0
-2481 -2536 0
-2481 -2537 0
-2481 -2538 0
-2481 -2539 0
-2481 -2540 0
-2481 -2541 0
-2481 -2542 0
-2481 -2543 0
-2481 -2544 0
-2481 -2545 0
-2482 -2483 0
-2482 -2484 0
-2482 -2485 0
-2482 -2486 0
-2482 -2487 0
-2482 -2488 0
-2482 -2489 0
-2482 -2490 0
-2482 -2491 0
-2482 -2492 0
-2482 -2493 0
-2482 -2494 0
-2482 -2495 0
-2482 -2496 0
-2482 -2497 0
-2482 -2498 0
-2482 -2499 0
-2482 -2500 0
-2482 -2501 0
-2482 -2502 0
-2482 -2503 0
-2482 -2504 0
-2482 -2505 0
-2482 -2506 0
-2482 -2507 0
-2482 -2508 0
-2482 -2509 0
-2482 -2510 0
-2482 -2511 0
-2482 -2512 0
-2482 -2513 0
-2482 -2514 0
-2482 -2515 0
-2482 -2516 0
-2482 -2517 0
-2482 -2518 0
-2482 -2519 0
-2482 -2520 0
-2482 -2521 0
-2482 -2522 0
-2482 -2523 0
-2482 -2524 0
-2482 -2525 0
-2482 -2526 0
-2482 -2527 0
-2482 -2528 0
-2482 -2529 0
-2482 -2530 0
-2482 -2531 0
-2482 -2532 0
-2482 -2533 0
-2482 -2534 0
-2482 -2535 0
-2482 -2536 0
-2482 -2537 0
-2482 -2538 0
-2482 -2539 0
-2482 -2540 0
-2482 -2541 0
-2482 -2542 0
-2482 -2543 0
-2482 -2544 0
-2482 -2545 0
-2483 -2484 0
-2483 -2485 0
-2483 -2486 0
-2483 -2487 0
-2483 -2488 0
-2483 -2489 0
-2483 -2490 0
-2483 -2491 0
-2483 -2492 0
-2483 -2493 0
-2483 -2494 0
-2483 -2495 0
-2483 -2496 0
-2483 -2497 0
-2483 -2498 0
-2483 -2499 0
-2483 -2500 0
-2483 -2501 0
-2483 -2502 0
-2483 -2503 0
-2483 -2504 0
-2483 -2505 0
-2483 -2506 0
-2483 -2507 0
-2483 -2508 0
-2483 -2509 0
-2483 -2510 0
-2483 -2511 0
-2483 -2512 0
-2483 -2513 0
-2483 -2514 0
-2483 -2515 0
-2483 -2516 0
-2483 -2517 0
-2483 -2518 0
-2483 -2519 0
-2483 -2520 0
-2483 -2521 0
-2483 -2522 0
-2483 -2523 0
-2483 -2524 0
-2483 -2525 0
-2483 -2526 0
-2483 -2527 0
-2483 -2528 0
-2483 -2529 0
-2483 -2530 0
-2483 -2531 0
-2483 -2532 0
-2483 -2533 0
-2483 -2534 0
-2483 -2535 0
-2483 -2536 0
-2483 -2537 0
-2483 -2538 0
-2483 -2539 0
-2483 -2540 0
-2483 -2541 0
-2483 -2542 0
-2483 -2543 0
-2483 -2544 0
-2483 -2545 0
-2484 -2485 0
-2484 -2486 0
-2484 -2487 0
-2484 -2488 0
-2484 -2489 0
-2484 -2490 0
-2484 -2491 0
-2484 -2492 0
-2484 -2493 0
-2484 -2494 0
-2484 -2495 0
-2484 -2496 0
-2484 -2497 0
-2484 -2498 0
-2484 -2499 0
-2484 -2500 0
-2484 -2501 0
-2484 -2502 0
-2484 -2503 0
-2484 -2504 0
-2484 -2505 0
-2484 -2506 0
-2484 -2507 0
-2484 -2508 0
-2484 -2509 0
-2484 -2510 0
-2484 -2511 0
-2484 -2512 0
-2484 -2513 0
-2484 -2514 0
-2484 -2515 0
-2484 -2516 0
-2484 -2517 0
-2484 -2518 0
-2484 -2519 0
-2484 -2520 0
-2484 -2521 0
-2484 -2522 0
-2484 -2523 0
-2484 -2524 0
-2484 -2525 0
-2484 -2526 0
-2484 -2527 0
-2484 -2528 0
-2484 -2529 0
-2484 -2530 0
-2484 -2531 0
-2484 -2532 0
-2484 -2533 0
-2484 -2534 0
-2484 -2535 0
-2484 -2536 0
-2484 -2537 0
-2484 -2538 0
-2484 -2539 0
-2484 -2540 0
-2484 -2541 0
-2484 -2542 0
-2484 -2543 0
-2484 -2544 0
-2484 -2545 0
-2485 -2486 0
-2485 -2487 0
-2485 -2488 0
-2485 -2489 0
-2485 -2490 0
-2485 -2491 0
-2485 -2492 0
-2485 -2493 0
-2485 -2494 0
-2485 -2495 0
-2485 -2496 0
-2485 -2497 0
-2485 -2498 0
-2485 -2499 0
-2485 -2500 0
-2485 -2501 0
-2485 -2502 0
-2485 -2503 0
-2485 -2504 0
-2485 -2505 0
-2485 -2506 0
-2485 -2507 0
-2485 -2508 0
-2485 -2509 0
-2485 -2510 0
-2485 -2511 0
-2485 -2512 0
-2485 -2513 0
-2485 -2514 0
-2485 -2515 0
-2485 -2516 0
-2485 -2517 0
-2485 -2518 0
-2485 -2519 0
-2485 -2520 0
-2485 -2521 0
-2485 -2522 0
-2485 -2523 0
-2485 -2524 0
-2485 -2525 0
-2485 -2526 0
-2485 -2527 0
-2485 -2528 0
-2485 -2529 0
-2485 -2530 0
-2485 -2531 0
-2485 -2532 0
-2485 -2533 0
-2485 -2534 0
-2485 -2535 0
-2485 -2536 0
-2485 -2537 0
-2485 -2538 0
-2485 -2539 0
-2485 -2540 0
-2485 -2541 0
-2485 -2542 0
-2485 -2543 0
-2485 -2544 0
-2485 -2545 0
-2486 -2487 0
-2486 -2488 0
-2486 -2489 0
-2486 -2490 0
-2486 -2491 0
-2486 -2492 0
-2486 -2493 0
-2486 -2494 0
-2486 -2495 0
-2486 -2496 0
-2486 -2497 0
-2486 -2498 0
-2486 -2499 0
-2486 -2500 0
-2486 -2501 0
-2486 -2502 0
-2486 -2503 0
-2486 -2504 0
-2486 -2505 0
-2486 -2506 0
-2486 -2507 0
-2486 -2508 0
-2486 -2509 0
-2486 -2510 0
-2486 -2511 0
-2486 -2512 0
-2486 -2513 0
-2486 -2514 0
-2486 -2515 0
-2486 -2516 0
-2486 -2517 0
-2486 -2518 0
-2486 -2519 0
-2486 -2520 0
-2486 -2521 0
-2486 -2522 0
-2486 -2523 0
-2486 -2524 0
-2486 -2525 0
-2486 -2526 0
-2486 -2527 0
-2486 -2528 0
-2486 -2529 0
-2486 -2530 0
-2486 -2531 0
-2486 -2532 0
-2486 -2533 0
-2486 -2534 0
-2486 -2535 0
-2486 -2536 0
-2486 -2537 0
-2486 -2538 0
-2486 -2539 0
-2486 -2540 0
-2486 -2541 0
-2486 -2542 0
-2486 -2543 0
-2486 -2544 0
-2486 -2545 0
-2487 -2488 0
-2487 -2489 0
-2487 -2490 0
-2487 -2491 0
-2487 -2492 0
-2487 -2493 0
-2487 -2494 0
-2487 -2495 0
-2487 -2496 0
-2487 -2497 0
-2487 -2498 0
-2487 -2499 0
-2487 -2500 0
-2487 -2501 0
-2487 -2502 0
-2487 -2503 0
-2487 -2504 0
-2487 -2505 0
-2487 -2506 0
-2487 -2507 0
-2487 -2508 0
-2487 -2509 0
-2487 -2510 0
-2487 -2511 0
-2487 -2512 0
-2487 -2513 0
-2487 -2514 0
-2487 -2515 0
-2487 -2516 0
-2487 -2517 0
-2487 -2518 0
-2487 -2519 0
-2487 -2520 0
-2487 -2521 0
-2487 -2522 0
-2487 -2523 0
-2487 -2524 0
-2487 -2525 0
-2487 -2526 0
-2487 -2527 0
-2487 -2528 0
-2487 -2529 0
-2487 -2530 0
-2487 -2531 0
-2487 -2532 0
-2487 -2533 0
-2487 -2534 0
-2487 -2535 0
-2487 -2536 0
-2487 -2537 0
-2487 -2538 0
-2487 -2539 0
-2487 -2540 0
-2487 -2541 0
-2487 -2542 0
-2487 -2543 0
-2487 -2544 0
-2487 -2545 0
-2488 -2489 0
-2488 -2490 0
-2488 -2491 0
-2488 -2492 0
-2488 -2493 0
-2488 -2494 0
-2488 -2495 0
-2488 -2496 0
-2488 -2497 0
-2488 -2498 0
-2488 -2499 0
-2488 -2500 0
-2488 -2501 0
-2488 -2502 0
-2488 -2503 0
-2488 -2504 0
-2488 -2505 0
-2488 -2506 0
-2488 -2507 0
-2488 -2508 0
-2488 -2509 0
-2488 -2510 0
-2488 -2511 0
-2488 -2512 0
-2488 -2513 0
-2488 -2514 0
-2488 -2515 0
-2488 -2516 0
-2488 -2517 0
-2488 -2518 0
-2488 -2519 0
-2488 -2520 0
-2488 -2521 0
-2488 -2522 0
-2488 -2523 0
-2488 -2524 0
-2488 -2525 0
-2488 -2526 0
-2488 -2527 0
-2488 -2528 0
-2488 -2529 0
-2488 -2530 0
-2488 -2531 0
-2488 -2532 0
-2488 -2533 0
-2488 -2534 0
-2488 -2535 0
-2488 -2536 0
-2488 -2537 0
-2488 -2538 0
-2488 -2539 0
-2488 -2540 0
-2488 -2541 0
-2488 -2542 0
-2488 -2543 0
-2488 -2544 0
-2488 -2545 0
-2489 -2490 0
-2489 -2491 0
-2489 -2492 0
-2489 -2493 0
-2489 -2494 0
-2489 -2495 0
-2489 -2496 0
-2489 -2497 0
-2489 -2498 0
-2489 -2499 0
-2489 -2500 0
-2489 -2501 0
-2489 -2502 0
-2489 -2503 0
-2489 -2504 0
-2489 -2505 0
-2489 -2506 0
-2489 -2507 0
-2489 -2508 0
-2489 -2509 0
-2489 -2510 0
-2489 -2511 0
-2489 -2512 0
-2489 -2513 0
-2489 -2514 0
-2489 -2515 0
-2489 -2516 0
-2489 -2517 0
-2489 -2518 0
-2489 -2519 0
-2489 -2520 0
-2489 -2521 0
-2489 -2522 0
-2489 -2523 0
-2489 -2524 0
-2489 -2525 0
-2489 -2526 0
-2489 -2527 0
-2489 -2528 0
-2489 -2529 0
-2489 -2530 0
-2489 -2531 0
-2489 -2532 0
-2489 -2533 0
-2489 -2534 0
-2489 -2535 0
-2489 -2536 0
-2489 -2537 0
-2489 -2538 0
-2489 -2539 0
-2489 -2540 0
-2489 -2541 0
-2489 -2542 0
-2489 -2543 0
-2489 -2544 0
-2489 -2545 0
-2490 -2491 0
-2490 -2492 0
-2490 -2493 0
-2490 -2494 0
-2490 -2495 0
-2490 -2496 0
-2490 -2497 0
-2490 -2498 0
-2490 -2499 0
-2490 -2500 0
-2490 -2501 0
-2490 -2502 0
-2490 -2503 0
-2490 -2504 0
-2490 -2505 0
-2490 -2506 0
-2490 -2507 0
-2490 -2508 0
-2490 -2509 0
-2490 -2510 0
-2490 -2511 0
-2490 -2512 0
-2490 -2513 0
-2490 -2514 0
-2490 -2515 0
-2490 -2516 0
-2490 -2517 0
-2490 -2518 0
-2490 -2519 0
-2490 -2520 0
-2490 -2521 0
-2490 -2522 0
-2490 -2523 0
-2490 -2524 0
-2490 -2525 0
-2490 -2526 0
-2490 -2527 0
-2490 -2528 0
-2490 -2529 0
-2490 -2530 0
-2490 -2531 0
-2490 -2532 0
-2490 -2533 0
-2490 -2534 0
-2490 -2535 0
-2490 -2536 0
-2490 -2537 0
-2490 -2538 0
-2490 -2539 0
-2490 -2540 0
-2490 -2541 0
-2490 -2542 0
-2490 -2543 0
-2490 -2544 0
-2490 -2545 0
-2491 -2492 0
-2491 -2493 0
-2491 -2494 0
-2491 -2495 0
-2491 -2496 0
-2491 -2497 0
-2491 -2498 0
-2491 -2499 0
-2491 -2500 0
-2491 -2501 0
-2491 -2502 0
-2491 -2503 0
-2491 -2504 0
-2491 -2505 0
-2491 -2506 0
-2491 -2507 0
-2491 -2508 0
-2491 -2509 0
-2491 -2510 0
-2491 -2511 0
-2491 -2512 0
-2491 -2513 0
-2491 -2514 0
-2491 -2515 0
-2491 -2516 0
-2491 -2517 0
-2491 -2518 0
-2491 -2519 0
-2491 -2520 0
-2491 -2521 0
-2491 -2522 0
-2491 -2523 0
-2491 -2524 0
-2491 -2525 0
-2491 -2526 0
-2491 -2527 0
-2491 -2528 0
-2491 -2529 0
-2491 -2530 0
-2491 -2531 0
-2491 -2532 0
-2491 -2533 0
-2491 -2534 0
-2491 -2535 0
-2491 -2536 0
-2491 -2537 0
-2491 -2538 0
-2491 -2539 0
-2491 -2540 0
-2491 -2541 0
-2491 -2542 0
-2491 -2543 0
-2491 -2544 0
-2491 -2545 0
-2492 -2493 0
-2492 -2494 0
-2492 -2495 0
-2492 -2496 0
-2492 -2497 0
-2492 -2498 0
-2492 -2499 0
-2492 -2500 0
-2492 -2501 0
-2492 -2502 0
-2492 -2503 0
-2492 -2504 0
-2492 -2505 0
-2492 -2506 0
-2492 -2507 0
-2492 -2508 0
-2492 -2509 0
-2492 -2510 0
-2492 -2511 0
-2492 -2512 0
-2492 -2513 0
-2492 -2514 0
-2492 -2515 0
-2492 -2516 0
-2492 -2517 0
-2492 -2518 0
-2492 -2519 0
-2492 -2520 0
-2492 -2521 0
-2492 -2522 0
-2492 -2523 0
-2492 -2524 0
-2492 -2525 0
-2492 -2526 0
-2492 -2527 0
-2492 -2528 0
-2492 -2529 0
-2492 -2530 0
-2492 -2531 0
-2492 -2532 0
-2492 -2533 0
-2492 -2534 0
-2492 -2535 0
-2492 -2536 0
-2492 -2537 0
-2492 -2538 0
-2492 -2539 0
-2492 -2540 0
-2492 -2541 0
-2492 -2542 0
-2492 -2543 0
-2492 -2544 0
-2492 -2545 0
-2493 -2494 0
-2493 -2495 0
-2493 -2496 0
-2493 -2497 0
-2493 -2498 0
-2493 -2499 0
-2493 -2500 0
-2493 -2501 0
-2493 -2502 0
-2493 -2503 0
-2493 -2504 0
-2493 -2505 0
-2493 -2506 0
-2493 -2507 0
-2493 -2508 0
-2493 -2509 0
-2493 -2510 0
-2493 -2511 0
-2493 -2512 0
-2493 -2513 0
-2493 -2514 0
-2493 -2515 0
-2493 -2516 0
-2493 -2517 0
-2493 -2518 0
-2493 -2519 0
-2493 -2520 0
-2493 -2521 0
-2493 -2522 0
-2493 -2523 0
-2493 -2524 0
-2493 -2525 0
-2493 -2526 0
-2493 -2527 0
-2493 -2528 0
-2493 -2529 0
-2493 -2530 0
-2493 -2531 0
-2493 -2532 0
-2493 -2533 0
-2493 -2534 0
-2493 -2535 0
-2493 -2536 0
-2493 -2537 0
-2493 -2538 0
-2493 -2539 0
-2493 -2540 0
-2493 -2541 0
-2493 -2542 0
-2493 -2543 0
-2493 -2544 0
-2493 -2545 0
-2494 -2495 0
-2494 -2496 0
-2494 -2497 0
-2494 -2498 0
-2494 -2499 0
-2494 -2500 0
-2494 -2501 0
-2494 -2502 0
-2494 -2503 0
-2494 -2504 0
-2494 -2505 0
-2494 -2506 0
-2494 -2507 0
-2494 -2508 0
-2494 -2509 0
-2494 -2510 0
-2494 -2511 0
-2494 -2512 0
-2494 -2513 0
-2494 -2514 0
-2494 -2515 0
-2494 -2516 0
-2494 -2517 0
-2494 -2518 0
-2494 -2519 0
-2494 -2520 0
-2494 -2521 0
-2494 -2522 0
-2494 -2523 0
-2494 -2524 0
-2494 -2525 0
-2494 -2526 0
-2494 -2527 0
-2494 -2528 0
-2494 -2529 0
-2494 -2530 0
-2494 -2531 0
-2494 -2532 0
-2494 -2533 0
-2494 -2534 0
-2494 -2535 0
-2494 -2536 0
-2494 -2537 0
-2494 -2538 0
-2494 -2539 0
-2494 -2540 0
-2494 -2541 0
-2494 -2542 0
-2494 -2543 0
-2494 -2544 0
-2494 -2545 0
-2495 -2496 0
-2495 -2497 0
-2495 -2498 0
-2495 -2499 0
-2495 -2500 0
-2495 -2501 0
-2495 -2502 0
-2495 -2503 0
-2495 -2504 0
-2495 -2505 0
-2495 -2506 0
-2495 -2507 0
-2495 -2508 0
-2495 -2509 0
-2495 -2510 0
-2495 -2511 0
-2495 -2512 0
-2495 -2513 0
-2495 -2514 0
-2495 -2515 0
-2495 -2516 0
-2495 -2517 0
-2495 -2518 0
-2495 -2519 0
-2495 -2520 0
-2495 -2521 0
-2495 -2522 0
-2495 -2523 0
-2495 -2524 0
-2495 -2525 0
-2495 -2526 0
-2495 -2527 0
-2495 -2528 0
-2495 -2529 0
-2495 -2530 0
-2495 -2531 0
-2495 -2532 0
-2495 -2533 0
-2495 -2534 0
-2495 -2535 0
-2495 -2536 0
-2495 -2537 0
-2495 -2538 0
-2495 -2539 0
-2495 -2540 0
-2495 -2541 0
-2495 -2542 0
-2495 -2543 0
-2495 -2544 0
-2495 -2545 0
-2496 -2497 0
-2496 -2498 0
-2496 -2499 0
-2496 -2500 0
-2496 -2501 0
-2496 -2502 0
-2496 -2503 0
-2496 -2504 0
-2496 -2505 0
-2496 -2506 0
-2496 -2507 0
-2496 -2508 0
-2496 -2509 0
-2496 -2510 0
-2496 -2511 0
-2496 -2512 0
-2496 -2513 0
-2496 -2514 0
-2496 -2515 0
-2496 -2516 0
-2496 -2517 0
-2496 -2518 0
-2496 -2519 0
-2496 -2520 0
-2496 -2521 0
-2496 -2522 0
-2496 -2523 0
-2496 -2524 0
-2496 -2525 0
-2496 -2526 0
-2496 -2527 0
-2496 -2528 0
-2496 -2529 0
-2496 -2530 0
-2496 -2531 0
-2496 -2532 0
-2496 -2533 0
-2496 -2534 0
-2496 -2535 0
-2496 -2536 0
-2496 -2537 0
-2496 -2538 0
-2496 -2539 0
-2496 -2540 0
-2496 -2541 0
-2496 -2542 0
-2496 -2543 0
-2496 -2544 0
-2496 -2545 0
-2497 -2498 0
-2497 -2499 0
-2497 -2500 0
-2497 -2501 0
-2497 -2502 0
-2497 -2503 0
-2497 -2504 0
-2497 -2505 0
-2497 -2506 0
-2497 -2507 0
-2497 -2508 0
-2497 -2509 0
-2497 -2510 0
-2497 -2511 0
-2497 -2512 0
-2497 -2513 0
-2497 -2514 0
-2497 -2515 0
-2497 -2516 0
-2497 -2517 0
-2497 -2518 0
-2497 -2519 0
-2497 -2520 0
-2497 -2521 0
-2497 -2522 0
-2497 -2523 0
-2497 -2524 0
-2497 -2525 0
-2497 -2526 0
-2497 -2527 0
-2497 -2528 0
-2497 -2529 0
-2497 -2530 0
-2497 -2531 0
-2497 -2532 0
-2497 -2533 0
-2497 -2534 0
-2497 -2535 0
-2497 -2536 0
-2497 -2537 0
-2497 -2538 0
-2497 -2539 0
-2497 -2540 0
-2497 -2541 0
-2497 -2542 0
-2497 -2543 0
-2497 -2544 0
-2497 -2545 0
-2498 -2499 0
-2498 -2500 0
-2498 -2501 0
-2498 -2502 0
-2498 -2503 0
-2498 -2504 0
-2498 -2505 0
-2498 -2506 0
-2498 -2507 0
-2498 -2508 0
-2498 -2509 0
-2498 -2510 0
-2498 -2511 0
-2498 -2512 0
-2498 -2513 0
-2498 -2514 0
-2498 -2515 0
-2498 -2516 0
-2498 -2517 0
-2498 -2518 0
-2498 -2519 0
-2498 -2520 0
-2498 -2521 0
-2498 -2522 0
-2498 -2523 0
-2498 -2524 0
-2498 -2525 0
-2498 -2526 0
-2498 -2527 0
-2498 -2528 0
-2498 -2529 0
-2498 -2530 0
-2498 -2531 0
-2498 -2532 0
-2498 -2533 0
-2498 -2534 0
-2498 -2535 0
-2498 -2536 0
-2498 -2537 0
-2498 -2538 0
-2498 -2539 0
-2498 -2540 0
-2498 -2541 0
-2498 -2542 0
-2498 -2543 0
-2498 -2544 0
-2498 -2545 0
-2499 -2500 0
-2499 -2501 0
-2499 -2502 0
-2499 -2503 0
-2499 -2504 0
-2499 -2505 0
-2499 -2506 0
-2499 -2507 0
-2499 -2508 0
-2499 -2509 0
-2499 -2510 0
-2499 -2511 0
-2499 -2512 0
-2499 -2513 0
-2499 -2514 0
-2499 -2515 0
-2499 -2516 0
-2499 -2517 0
-2499 -2518 0
-2499 -2519 0
-2499 -2520 0
-2499 -2521 0
-2499 -2522 0
-2499 -2523 0
-2499 -2524 0
-2499 -2525 0
-2499 -2526 0
-2499 -2527 0
-2499 -2528 0
-2499 -2529 0
-2499 -2530 0
-2499 -2531 0
-2499 -2532 0
-2499 -2533 0
-2499 -2534 0
-2499 -2535 0
-2499 -2536 0
-2499 -2537 0
-2499 -2538 0
-2499 -2539 0
-2499 -2540 0
-2499 -2541 0
-2499 -2542 0
-2499 -2543 0
-2499 -2544 0
-2499 -2545 0
-2500 -2501 0
-2500 -2502 0
-2500 -2503 0
-2500 -2504 0
-2500 -2505 0
-2500 -2506 0
-2500 -2507 0
-2500 -2508 0
-2500 -2509 0
-2500 -2510 0
-2500 -2511 0
-2500 -2512 0
-2500 -2513 0
-2500 -2514 0
-2500 -2515 0
-2500 -2516 0
-2500 -2517 0
-2500 -2518 0
-2500 -2519 0
-2500 -2520 0
-2500 -2521 0
-2500 -2522 0
-2500 -2523 0
-2500 -2524 0
-2500 -2525 0
-2500 -2526 0
-2500 -2527 0
-2500 -2528 0
-2500 -2529 0
-2500 -2530 0
-2500 -2531 0
-2500 -2532 0
-2500 -2533 0
-2500 -2534 0
-2500 -2535 0
-2500 -2536 0
-2500 -2537 0
-2500 -2538 0
-2500 -2539 0
-2500 -2540 0
-2500 -2541 0
-2500 -2542 0
-2500 -2543 0
-2500 -2544 0
-2500 -2545 0
-2501 -2502 0
-2501 -2503 0
-2501 -2504 0
-2501 -2505 0
-2501 -2506 0
-2501 -2507 0
-2501 -2508 0
-2501 -2509 0
-2501 -2510 0
-2501 -2511 0
-2501 -2512 0
-2501 -2513 0
-2501 -2514 0
-2501 -2515 0
-2501 -2516 0
-2501 -2517 0
-2501 -2518 0
-2501 -2519 0
-2501 -2520 0
-2501 -2521 0
-2501 -2522 0
-2501 -2523 0
-2501 -2524 0
-2501 -2525 0
-2501 -2526 0
-2501 -2527 0
-2501 -2528 0
-2501 -2529 0
-2501 -2530 0
-2501 -2531 0
-2501 -2532 0
-2501 -2533 0
-2501 -2534 0
-2501 -2535 0
-2501 -2536 0
-2501 -2537 0
-2501 -2538 0
-2501 -2539 0
-2501 -2540 0
-2501 -2541 0
-2501 -2542 0
-2501 -2543 0
-2501 -2544 0
-2501 -2545 0
-2502 -2503 0
-2502 -2504 0
-2502 -2505 0
-2502 -2506 0
-2502 -2507 0
-2502 -2508 0
-2502 -2509 0
-2502 -2510 0
-2502 -2511 0
-2502 -2512 0
-2502 -2513 0
-2502 -2514 0
-2502 -2515 0
-2502 -2516 0
-2502 -2517 0
-2502 -2518 0
-2502 -2519 0
-2502 -2520 0
-2502 -2521 0
-2502 -2522 0
-2502 -2523 0
-2502 -2524 0
-2502 -2525 0
-2502 -2526 0
-2502 -2527 0
-2502 -2528 0
-2502 -2529 0
-2502 -2530 0
-2502 -2531 0
-2502 -2532 0
-2502 -2533 0
-2502 -2534 0
-2502 -2535 0
-2502 -2536 0
-2502 -2537 0
-2502 -2538 0
-2502 -2539 0
-2502 -2540 0
-2502 -2541 0
-2502 -2542 0
-2502 -2543 0
-2502 -2544 0
-2502 -2545 0
-2503 -2504 0
-2503 -2505 0
-2503 -2506 0
-2503 -2507 0
-2503 -2508 0
-2503 -2509 0
-2503 -2510 0
-2503 -2511 0
-2503 -2512 0
-2503 -2513 0
-2503 -2514 0
-2503 -2515 0
-2503 -2516 0
-2503 -2517 0
-2503 -2518 0
-2503 -2519 0
-2503 -2520 0
-2503 -2521 0
-2503 -2522 0
-2503 -2523 0
-2503 -2524 0
-2503 -2525 0
-2503 -2526 0
-2503 -2527 0
-2503 -2528 0
-2503 -2529 0
-2503 -2530 0
-2503 -2531 0
-2503 -2532 0
-2503 -2533 0
-2503 -2534 0
-2503 -2535 0
-2503 -2536 0
-2503 -2537 0
-2503 -2538 0
-2503 -2539 0
-2503 -2540 0
-2503 -2541 0
-2503 -2542 0
-2503 -2543 0
-2503 -2544 0
-2503 -2545 0
-2504 -2505 0
-2504 -2506 0
-2504 -2507 0
-2504 -2508 0
-2504 -2509 0
-2504 -2510 0
-2504 -2511 0
-2504 -2512 0
-2504 -2513 0
-2504 -2514 0
-2504 -2515 0
-2504 -2516 0
-2504 -2517 0
-2504 -2518 0
-2504 -2519 0
-2504 -2520 0
-2504 -2521 0
-2504 -2522 0
-2504 -2523 0
-2504 -2524 0
-2504 -2525 0
-2504 -2526 0
-2504 -2527 0
-2504 -2528 0
-2504 -2529 0
-2504 -2530 0
-2504 -2531 0
-2504 -2532 0
-2504 -2533 0
-2504 -2534 0
-2504 -2535 0
-2504 -2536 0
-2504 -2537 0
-2504 -2538 0
-2504 -2539 0
-2504 -2540 0
-2504 -2541 0
-2504 -2542 0
-2504 -2543 0
-2504 -2544 0
-2504 -2545 0
-2505 -2506 0
-2505 -2507 0
-2505 -2508 0
-2505 -2509 0
-2505 -2510 0
-2505 -2511 0
-2505 -2512 0
-2505 -2513 0
-2505 -2514 0
-2505 -2515 0
-2505 -2516 0
-2505 -2517 0
-2505 -2518 0
-2505 -2519 0
-2505 -2520 0
-2505 -2521 0
-2505 -2522 0
-2505 -2523 0
-2505 -2524 0
-2505 -2525 0
-2505 -2526 0
-2505 -2527 0
-2505 -2528 0
-2505 -2529 0
-2505 -2530 0
-2505 -2531 0
-2505 -2532 0
-2505 -2533 0
-2505 -2534 0
-2505 -2535 0
-2505 -2536 0
-2505 -2537 0
-2505 -2538 0
-2505 -2539 0
-2505 -2540 0
-2505 -2541 0
-2505 -2542 0
-2505 -2543 0
-2505 -2544 0
-2505 -2545 0
-2506 -2507 0
-2506 -2508 0
-2506 -2509 0
-2506 -2510 0
-2506 -2511 0
-2506 -2512 0
-2506 -2513 0
-2506 -2514 0
-2506 -2515 0
-2506 -2516 0
-2506 -2517 0
-2506 -2518 0
-2506 -2519 0
-2506 -2520 0
-2506 -2521 0
-2506 -2522 0
-2506 -2523 0
-2506 -2524 0
-2506 -2525 0
-2506 -2526 0
-2506 -2527 0
-2506 -2528 0
-2506 -2529 0
-2506 -2530 0
-2506 -2531 0
-2506 -2532 0
-2506 -2533 0
-2506 -2534 0
-2506 -2535 0
-2506 -2536 0
-2506 -2537 0
-2506 -2538 0
-2506 -2539 0
-2506 -2540 0
-2506 -2541 0
-2506 -2542 0
-2506 -2543 0
-2506 -2544 0
-2506 -2545 0
-2507 -2508 0
-2507 -2509 0
-2507 -2510 0
-2507 -2511 0
-2507 -2512 0
-2507 -2513 0
-2507 -2514 0
-2507 -2515 0
-2507 -2516 0
-2507 -2517 0
-2507 -2518 0
-2507 -2519 0
-2507 -2520 0
-2507 -2521 0
-2507 -2522 0
-2507 -2523 0
-2507 -2524 0
-2507 -2525 0
-2507 -2526 0
-2507 -2527 0
-2507 -2528 0
-2507 -2529 0
-2507 -2530 0
-2507 -2531 0
-2507 -2532 0
-2507 -2533 0
-2507 -2534 0
-2507 -2535 0
-2507 -2536 0
-2507 -2537 0
-2507 -2538 0
-2507 -2539 0
-2507 -2540 0
-2507 -2541 0
-2507 -2542 0
-2507 -2543 0
-2507 -2544 0
-2507 -2545 0
-2508 -2509 0
-2508 -2510 0
-2508 -2511 0
-2508 -2512 0
-2508 -2513 0
-2508 -2514 0
-2508 -2515 0
-2508 -2516 0
-2508 -2517 0
-2508 -2518 0
-2508 -2519 0
-2508 -2520 0
-2508 -2521 0
-2508 -2522 0
-2508 -2523 0
-2508 -2524 0
-2508 -2525 0
-2508 -2526 0
-2508 -2527 0
-2508 -2528 0
-2508 -2529 0
-2508 -2530 0
-2508 -2531 0
-2508 -2532 0
-2508 -2533 0
-2508 -2534 0
-2508 -2535 0
-2508 -2536 0
-2508 -2537 0
-2508 -2538 0
-2508 -2539 0
-2508 -2540 0
-2508 -2541 0
-2508 -2542 0
-2508 -2543 0
-2508 -2544 0
-2508 -2545 0
-2509 -2510 0
-2509 -2511 0
-2509 -2512 0
-2509 -2513 0
-2509 -2514 0
-2509 -2515 0
-2509 -2516 0
-2509 -2517 0
-2509 -2518 0
-2509 -2519 0
-2509 -2520 0
-2509 -2521 0
-2509 -2522 0
-2509 -2523 0
-2509 -2524 0
-2509 -2525 0
-2509 -2526 0
-2509 -2527 0
-2509 -2528 0
-2509 -2529 0
-2509 -2530 0
-2509 -2531 0
-2509 -2532 0
-2509 -2533 0
-2509 -2534 0
-2509 -2535 0
-2509 -2536 0
-2509 -2537 0
-2509 -2538 0
-2509 -2539 0
-2509 -2540 0
-2509 -2541 0
-2509 -2542 0
-2509 -2543 0
-2509 -2544 0
-2509 -2545 0
-2510 -2511 0
-2510 -2512 0
-2510 -2513 0
-2510 -2514 0
-2510 -2515 0
-2510 -2516 0
-2510 -2517 0
-2510 -2518 0
-2510 -2519 0
-2510 -2520 0
-2510 -2521 0
-2510 -2522 0
-2510 -2523 0
-2510 -2524 0
-2510 -2525 0
-2510 -2526 0
-2510 -2527 0
-2510 -2528 0
-2510 -2529 0
-2510 -2530 0
-2510 -2531 0
-2510 -2532 0
-2510 -2533 0
-2510 -2534 0
-2510 -2535 0
-2510 -2536 0
-2510 -2537 0
-2510 -2538 0
-2510 -2539 0
-2510 -2540 0
-2510 -2541 0
-2510 -2542 0
-2510 -2543 0
-2510 -2544 0
-2510 -2545 0
-2511 -2512 0
-2511 -2513 0
-2511 -2514 0
-2511 -2515 0
-2511 -2516 0
-2511 -2517 0
-2511 -2518 0
-2511 -2519 0
-2511 -2520 0
-2511 -2521 0
-2511 -2522 0
-2511 -2523 0
-2511 -2524 0
-2511 -2525 0
-2511 -2526 0
-2511 -2527 0
-2511 -2528 0
-2511 -2529 0
-2511 -2530 0
-2511 -2531 0
-2511 -2532 0
-2511 -2533 0
-2511 -2534 0
-2511 -2535 0
-2511 -2536 0
-2511 -2537 0
-2511 -2538 0
-2511 -2539 0
-2511 -2540 0
-2511 -2541 0
-2511 -2542 0
-2511 -2543 0
-2511 -2544 0
-2511 -2545 0
-2512 -2513 0
-2512 -2514 0
-2512 -2515 0
-2512 -2516 0
-2512 -2517 0
-2512 -2518 0
-2512 -2519 0
-2512 -2520 0
-2512 -2521 0
-2512 -2522 0
-2512 -2523 0
-2512 -2524 0
-2512 -2525 0
-2512 -2526 0
-2512 -2527 0
-2512 -2528 0
-2512 -2529 0
-2512 -2530 0
-2512 -2531 0
-2512 -2532 0
-2512 -2533 0
-2512 -2534 0
-2512 -2535 0
-2512 -2536 0
-2512 -2537 0
-2512 -2538 0
-2512 -2539 0
-2512 -2540 0
-2512 -2541 0
-2512 -2542 0
-2512 -2543 0
-2512 -2544 0
-2512 -2545 0
-2513 -2514 0
-2513 -2515 0
-2513 -2516 0
-2513 -2517 0
-2513 -2518 0
-2513 -2519 0
-2513 -2520 0
-2513 -2521 0
-2513 -2522 0
-2513 -2523 0
-2513 -2524 0
-2513 -2525 0
-2513 -2526 0
-2513 -2527 0
-2513 -2528 0
-2513 -2529 0
-2513 -2530 0
-2513 -2531 0
-2513 -2532 0
-2513 -2533 0
-2513 -2534 0
-2513 -2535 0
-2513 -2536 0
-2513 -2537 0
-2513 -2538 0
-2513 -2539 0
-2513 -2540 0
-2513 -2541 0
-2513 -2542 0
-2513 -2543 0
-2513 -2544 0
-2513 -2545 0
-2514 -2515 0
-2514 -2516 0
-2514 -2517 0
-2514 -2518 0
-2514 -2519 0
-2514 -2520 0
-2514 -2521 0
-2514 -2522 0
-2514 -2523 0
-2514 -2524 0
-2514 -2525 0
-2514 -2526 0
-2514 -2527 0
-2514 -2528 0
-2514 -2529 0
-2514 -2530 0
-2514 -2531 0
-2514 -2532 0
-2514 -2533 0
-2514 -2534 0
-2514 -2535 0
-2514 -2536 0
-2514 -2537 0
-2514 -2538 0
-2514 -2539 0
-2514 -2540 0
-2514 -2541 0
-2514 -2542 0
-2514 -2543 0
-2514 -2544 0
-2514 -2545 0
-2515 -2516 0
-2515 -2517 0
-2515 -2518 0
-2515 -2519 0
-2515 -2520 0
-2515 -2521 0
-2515 -2522 0
-2515 -2523 0
-2515 -2524 0
-2515 -2525 0
-2515 -2526 0
-2515 -2527 0
-2515 -2528 0
-2515 -2529 0
-2515 -2530 0
-2515 -2531 0
-2515 -2532 0
-2515 -2533 0
-2515 -2534 0
-2515 -2535 0
-2515 -2536 0
-2515 -2537 0
-2515 -2538 0
-2515 -2539 0
-2515 -2540 0
-2515 -2541 0
-2515 -2542 0
-2515 -2543 0
-2515 -2544 0
-2515 -2545 0
-2516 -2517 0
-2516 -2518 0
-2516 -2519 0
-2516 -2520 0
-2516 -2521 0
-2516 -2522 0
-2516 -2523 0
-2516 -2524 0
-2516 -2525 0
-2516 -2526 0
-2516 -2527 0
-2516 -2528 0
-2516 -2529 0
-2516 -2530 0
-2516 -2531 0
-2516 -2532 0
-2516 -2533 0
-2516 -2534 0
-2516 -2535 0
-2516 -2536 0
-2516 -2537 0
-2516 -2538 0
-2516 -2539 0
-2516 -2540 0
-2516 -2541 0
-2516 -2542 0
-2516 -2543 0
-2516 -2544 0
-2516 -2545 0
-2517 -2518 0
-2517 -2519 0
-2517 -2520 0
-2517 -2521 0
-2517 -2522 0
-2517 -2523 0
-2517 -2524 0
-2517 -2525 0
-2517 -2526 0
-2517 -2527 0
-2517 -2528 0
-2517 -2529 0
-2517 -2530 0
-2517 -2531 0
-2517 -2532 0
-2517 -2533 0
-2517 -2534 0
-2517 -2535 0
-2517 -2536 0
-2517 -2537 0
-2517 -2538 0
-2517 -2539 0
-2517 -2540 0
-2517 -2541 0
-2517 -2542 0
-2517 -2543 0
-2517 -2544 0
-2517 -2545 0
-2518 -2519 0
-2518 -2520 0
-2518 -2521 0
-2518 -2522 0
-2518 -2523 0
-2518 -2524 0
-2518 -2525 0
-2518 -2526 0
-2518 -2527 0
-2518 -2528 0
-2518 -2529 0
-2518 -2530 0
-2518 -2531 0
-2518 -2532 0
-2518 -2533 0
-2518 -2534 0
-2518 -2535 0
-2518 -2536 0
-2518 -2537 0
-2518 -2538 0
-2518 -2539 0
-2518 -2540 0
-2518 -2541 0
-2518 -2542 0
-2518 -2543 0
-2518 -2544 0
-2518 -2545 0
-2519 -2520 0
-2519 -2521 0
-2519 -2522 0
-2519 -2523 0
-2519 -2524 0
-2519 -2525 0
-2519 -2526 0
-2519 -2527 0
-2519 -2528 0
-2519 -2529 0
-2519 -2530 0
-2519 -2531 0
-2519 -2532 0
-2519 -2533 0
-2519 -2534 0
-2519 -2535 0
-2519 -2536 0
-2519 -2537 0
-2519 -2538 0
-2519 -2539 0
-2519 -2540 0
-2519 -2541 0
-2519 -2542 0
-2519 -2543 0
-2519 -2544 0
-2519 -2545 0
-2520 -2521 0
-2520 -2522 0
-2520 -2523 0
-2520 -2524 0
-2520 -2525 0
-2520 -2526 0
-2520 -2527 0
-2520 -2528 0
-2520 -2529 0
-2520 -2530 0
-2520 -2531 0
-2520 -2532 0
-2520 -2533 0
-2520 -2534 0
-2520 -2535 0
-2520 -2536 0
-2520 -2537 0
-2520 -2538 0
-2520 -2539 0
-2520 -2540 0
-2520 -2541 0
-2520 -2542 0
-2520 -2543 0
-2520 -2544 0
-2520 -2545 0
-2521 -2522 0
-2521 -2523 0
-2521 -2524 0
-2521 -2525 0
-2521 -2526 0
-2521 -2527 0
-2521 -2528 0
-2521 -2529 0
-2521 -2530 0
-2521 -2531 0
-2521 -2532 0
-2521 -2533 0
-2521 -2534 0
-2521 -2535 0
-2521 -2536 0
-2521 -2537 0
-2521 -2538 0
-2521 -2539 0
-2521 -2540 0
-2521 -2541 0
-2521 -2542 0
-2521 -2543 0
-2521 -2544 0
-2521 -2545 0
-2522 -2523 0
-2522 -2524 0
-2522 -2525 0
-2522 -2526 0
-2522 -2527 0
-2522 -2528 0
-2522 -2529 0
-2522 -2530 0
-2522 -2531 0
-2522 -2532 0
-2522 -2533 0
-2522 -2534 0
-2522 -2535 0
-2522 -2536 0
-2522 -2537 0
-2522 -2538 0
-2522 -2539 0
-2522 -2540 0
-2522 -2541 0
-2522 -2542 0
-2522 -2543 0
-2522 -2544 0
-2522 -2545 0
-2523 -2524 0
-2523 -2525 0
-2523 -2526 0
-2523 -2527 0
-2523 -2528 0
-2523 -2529 0
-2523 -2530 0
-2523 -2531 0
-2523 -2532 0
-2523 -2533 0
-2523 -2534 0
-2523 -2535 0
-2523 -2536 0
-2523 -2537 0
-2523 -2538 0
-2523 -2539 0
-2523 -2540 0
-2523 -2541 0
-2523 -2542 0
-2523 -2543 0
-2523 -2544 0
-2523 -2545 0
-2524 -2525 0
-2524 -2526 0
-2524 -2527 0
-2524 -2528 0
-2524 -2529 0
-2524 -2530 0
-2524 -2531 0
-2524 -2532 0
-2524 -2533 0
-2524 -2534 0
-2524 -2535 0
-2524 -2536 0
-2524 -2537 0
-2524 -2538 0
-2524 -2539 0
-2524 -2540 0
-2524 -2541 0
-2524 -2542 0
-2524 -2543 0
-2524 -2544 0
-2524 -2545 0
-2525 -2526 0
-2525 -2527 0
-2525 -2528 0
-2525 -2529 0
-2525 -2530 0
-2525 -2531 0
-2525 -2532 0
-2525 -2533 0
-2525 -2534 0
-2525 -2535 0
-2525 -2536 0
-2525 -2537 0
-2525 -2538 0
-2525 -2539 0
-2525 -2540 0
-2525 -2541 0
-2525 -2542 0
-2525 -2543 0
-2525 -2544 0
-2525 -2545 0
-2526 -2527 0
-2526 -2528 0
-2526 -2529 0
-2526 -2530 0
-2526 -2531 0
-2526 -2532 0
-2526 -2533 0
-2526 -2534 0
-2526 -2535 0
-2526 -2536 0
-2526 -2537 0
-2526 -2538 0
-2526 -2539 0
-2526 -2540 0
-2526 -2541 0
-2526 -2542 0
-2526 -2543 0
-2526 -2544 0
-2526 -2545 0
-2527 -2528 0
-2527 -2529 0
-2527 -2530 0
-2527 -2531 0
-2527 -2532 0
-2527 -2533 0
-2527 -2534 0
-2527 -2535 0
-2527 -2536 0
-2527 -2537 0
-2527 -2538 0
-2527 -2539 0
-2527 -2540 0
-2527 -2541 0
-2527 -2542 0
-2527 -2543 0
-2527 -2544 0
-2527 -2545 0
-2528 -2529 0
-2528 -2530 0
-2528 -2531 0
-2528 -2532 0
-2528 -2533 0
-2528 -2534 0
-2528 -2535 0
-2528 -2536 0
-2528 -2537 0
-2528 -2538 0
-2528 -2539 0
-2528 -2540 0
-2528 -2541 0
-2528 -2542 0
-2528 -2543 0
-2528 -2544 0
-2528 -2545 0
-2529 -2530 0
-2529 -2531 0
-2529 -2532 0
-2529 -2533 0
-2529 -2534 0
-2529 -2535 0
-2529 -2536 0
-2529 -2537 0
-2529 -2538 0
-2529 -2539 0
-2529 -2540 0
-2529 -2541 0
-2529 -2542 0
-2529 -2543 0
-2529 -2544 0
-2529 -2545 0
-2530 -2531 0
-2530 -2532 0
-2530 -2533 0
-2530 -2534 0
-2530 -2535 0
-2530 -2536 0
-2530 -2537 0
-2530 -2538 0
-2530 -2539 0
-2530 -2540 0
-2530 -2541 0
-2530 -2542 0
-2530 -2543 0
-2530 -2544 0
-2530 -2545 0
-2531 -2532 0
-2531 -2533 0
-2531 -2534 0
-2531 -2535 0
-2531 -2536 0
-2531 -2537 0
-2531 -2538 0
-2531 -2539 0
-2531 -2540 0
-2531 -2541 0
-2531 -2542 0
-2531 -2543 0
-2531 -2544 0
-2531 -2545 0
-2532 -2533 0
-2532 -2534 0
-2532 -2535 0
-2532 -2536 0
-2532 -2537 0
-2532 -2538 0
-2532 -2539 0
-2532 -2540 0
-2532 -2541 0
-2532 -2542 0
-2532 -2543 0
-2532 -2544 0
-2532 -2545 0
-2533 -2534 0
-2533 -2535 0
-2533 -2536 0
-2533 -2537 0
-2533 -2538 0
-2533 -2539 0
-2533 -2540 0
-2533 -2541 0
-2533 -2542 0
-2533 -2543 0
-2533 -2544 0
-2533 -2545 0
-2534 -2535 0
-2534 -2536 0
-2534 -2537 0
-2534 -2538 0
-2534 -2539 0
-2534 -2540 0
-2534 -2541 0
-2534 -2542 0
-2534 -2543 0
-2534 -2544 0
-2534 -2545 0
-2535 -2536 0
-2535 -2537 0
-2535 -2538 0
-2535 -2539 0
-2535 -2540 0
-2535 -2541 0
-2535 -2542 0
-2535 -2543 0
-2535 -2544 0
-2535 -2545 0
-2536 -2537 0
-2536 -2538 0
-2536 -2539 0
-2536 -2540 0
-2536 -2541 0
-2536 -2542 0
-2536 -2543 0
-2536 -2544 0
-2536 -2545 0
-2537 -2538 0
-2537 -2539 0
-2537 -2540 0
-2537 -2541 0
-2537 -2542 0
-2537 -2543 0
-2537 -2544 0
-2537 -2545 0
-2538 -2539 0
-2538 -2540 0
-2538 -2541 0
-2538 -2542 0
-2538 -2543 0
-2538 -2544 0
-2538 -2545 0
-2539 -2540 0
-2539 -2541 0
-2539 -2542 0
-2539 -2543 0
-2539 -2544 0
-2539 -2545 0
-2540 -2541 0
-2540 -2542 0
-2540 -2543 0
-2540 -2544 0
-2540 -2545 0
-2541 -2542 0
-2541 -2543 0
-2541 -2544 0
-2541 -2545 0
-2542 -2543 0
-2542 -2544 0
-2542 -2545 0
-2543 -2544 0
-2543 -2545 0
-2544 -2545 0
-2409 84 2478 0
-2409 -84 2477 0
-2410 84 2479 0
-2410 -84 2478 0
-2411 84 2480 0
-2411 -84 2479 0
-2412 84 2481 0
-2412 -84 2480 0
-2413 84 2482 0
-2413 -84 2481 0
-2414 84 2483 0
-2414 -84 2482 0
-2415 84 2484 0
-2415 -84 2483 0
-2416 84 2485 0
-2416 -84 2484 0
-2417 84 2486 0
-2417 -84 2485 0
-2418 84 2487 0
-2418 -84 2486 0
-2419 84 2488 0
-2419 -84 2487 0
-2420 84 2489 0
-2420 -84 2488 0
-2421 84 2490 0
-2421 -84 2489 0
-2422 84 2491 0
-2422 -84 2490 0
-2423 84 2492 0
-2423 -84 2491 0
-2424 84 2493 0
-2424 -84 2492 0
-2425 84 2494 0
-2425 -84 2493 0
-2426 84 2495 0
-2426 -84 2494 0
-2427 84 2496 0
-2427 -84 2495 0
-2428 84 2497 0
-2428 -84 2496 0
-2429 84 2498 0
-2429 -84 2497 0
-2430 84 2499 0
-2430 -84 2498 0
-2431 84 2500 0
-2431 -84 2499 0
-2432 84 2501 0
-2432 -84 2500 0
-2433 84 2502 0
-2433 -84 2501 0
-2434 84 2503 0
-2434 -84 2502 0
-2435 84 2504 0
-2435 -84 2503 0
-2436 84 2505 0
-2436 -84 2504 0
-2437 84 2506 0
-2437 -84 2505 0
-2438 84 2507 0
-2438 -84 2506 0
-2439 84 2508 0
-2439 -84 2507 0
-2440 84 2509 0
-2440 -84 2508 0
-2441 84 2510 0
-2441 -84 2509 0
-2442 84 2511 0
-2442 -84 2510 0
-2443 84 2512 0
-2443 -84 2511 0
-2444 84 2513 0
-2444 -84 2512 0
-2445 84 2514 0
-2445 -84 2513 0
-2446 84 2515 0
-2446 -84 2514 0
-2447 84 2516 0
-2447 -84 2515 0
-2448 84 2517 0
-2448 -84 2516 0
-2449 84 2518 0
-2449 -84 2517 0
-2450 84 2519 0
-2450 -84 2518 0
-2451 84 2520 0
-2451 -84 2519 0
-2452 84 2521 0
-2452 -84 2520 0
-2453 84 2522 0
-2453 -84 2521 0
-2454 84 2523 0
-2454 -84 2522 0
-2455 84 2524 0
-2455 -84 2523 0
-2456 84 2525 0
-2456 -84 2524 0
-2457 84 2526 0
-2457 -84 2525 0
-2458 84 2527 0
-2458 -84 2526 0
-2459 84 2528 0
-2459 -84 2527 0
-2460 84 2529 0
-2460 -84 2528 0
-2461 84 2530 0
-2461 -84 2529 0
-2462 84 2531 0
-2462 -84 2530 0
-2463 84 2532 0
-2463 -84 2531 0
-2464 84 2533 0
-2464 -84 2532 0
-2465 84 2534 0
-2465 -84 2533 0
-2466 84 2535 0
-2466 -84 2534 0
-2467 84 2536 0
-2467 -84 2535 0
-2468 84 2537 0
-2468 -84 2536 0
-2469 84 2538 0
-2469 -84 2537 0
-2470 84 2539 0
-2470 -84 2538 0
-2471 84 2540 0
-2471 -84 2539 0
-2472 84 2541 0
-2472 -84 2540 0
-2473 84 2542 0
-2473 -84 2541 0
-2474 84 2543 0
-2474 -84 2542 0
-2475 84 2544 0
-2475 -84 2543 0
-2476 84 2545 0
-2476 -84 2544 0
2546 2547 2548 2549 2550 2551 2552 2553 2554 2555 2556 2557 2558 2559 2560 2561 2562 2563 2564 2565 2566 2567 2568 2569 2570 2571 2572 2573 2574 2575 2576 2577 2578 2579 2580 2581 2582 2583 2584 2585 2586 2587 2588 2589 2590 2591 2592 2593 2594 2595 2596 2597 2598 2599 2600 2601 2602 2603 2604 2605 2606 2607 2608 2609 2610 2611 2612 2613 2614 2615 0
-2546 -2547 0
-2546 -2548 0
-2546 -2549 0
-2546 -2550 0
-2546 -2551 0
-2546 -2552 0
-2546 -2553 0
-2546 -2554 0
-2546 -2555 0
-2546 -2556 0
-2546 -2557 0
-2546 -2558 0
-2546 -2559 0
-2546 -2560 0
-2546 -2561 0
-2546 -2562 0
-2546 -2563 0
-2546 -2564 0
-2546 -2565 0
-2546 -2566 0
-2546 -2567 0
-2546 -2568 0
-2546 -2569 0
-2546 -2570 0
-2546 -2571 0
-2546 -2572 0
-2546 -2573 0
-2546 -2574 0
-2546 -2575 0
-2546 -2576 0
-2546 -2577 0
-2546 -2578 0
-2546 -2579 0
-2546 -2580 0
-2546 -2581 0
-2546 -2582 0
-2546 -2583 0
-2546 -2584 0
-2546 -2585 0
-2546 -2586 0
-2546 -2587 0
-2546 -2588 0
-2546 -2589 0
-2546 -2590 0
-2546 -2591 0
-2546 -2592 0
-2546 -2593 0
-2546 -2594 0
-2546 -2595 0
-2546 -2596 0
-2546 -2597 0
-2546 -2598 0
-2546 -2599 0
-2546 -2600 0
-2546 -2601 0
-2546 -2602 0
-2546 -2603 0
-2546 -2604 0
-2546 -2605 0
-2546 -2606 0
-2546 -2607 0
-2546 -2608 0
-2546 -2609 0
-2546 -2610 0
-2546 -2611 0
-2546 -2612 0
-2546 -2613 0
-2546 -2614 0
-2546 -2615 0
-2547 -2548 0
-2547 -2549 0
-2547 -2550 0
-2547 -2551 0
-2547 -2552 0
-2547 -2553 0
-2547 -2554 0
-2547 -2555 0
-2547 -2556 0
-2547 -2557 0
-2547 -2558 0
-2547 -2559 0
-2547 -2560 0
-2547 -2561 0
-2547 -2562 0
-2547 -2563 0
-2547 -2564 0
-2547 -2565 0
-2547 -2566 0
-2547 -2567 0
-2547 -2568 0
-2547 -2569 0
-2547 -2570 0
-2547 -2571 0
-2547 -2572 0
-2547 -2573 0
-2547 -2574 0
-2547 -2575 0
-2547 -2576 0
-2547 -2577 0
-2547 -2578 0
-2547 -2579 0
-2547 -2580 0
-2547 -2581 0
-2547 -2582 0
-2547 -2583 0
-2547 -2584 0
-2547 -2585 0
-2547 -2586 0
-2547 -2587 0
-2547 -2588 0
-2547 -2589 0
-2547 -2590 0
-2547 -2591 0
-2547 -2592 0
-2547 -2593 0
-2547 -2594 0
-2547 -2595 0
-2547 -2596 0
-2547 -2597 0
-2547 -2598 0
-2547 -2599 0
-2547 -2600 0
-2547 -2601 0
-2547 -2602 0
-2547 -2603 0
-2547 -2604 0
-2547 -2605 0
-2547 -2606 0
-2547 -2607 0
-2547 -2608 0
-2547 -2609 0
-2547 -2610 0
-2547 -2611 0
-2547 -2612 0
-2547 -2613 0
-2547 -2614 0
-2547 -2615 0
-2548 -2549 0
-2548 -2550 0
-2548 -2551 0
-2548 -2552 0
-2548 -2553 0
-2548 -2554 0
-2548 -2555 0
-2548 -2556 0
-2548 -2557 0
-2548 -2558 0
-2548 -2559 0
-2548 -2560 0
-2548 -2561 0
-2548 -2562 0
-2548 -2563 0
-2548 -2564 0
-2548 -2565 0
-2548 -2566 0
-2548 -2567 0
-2548 -2568 0
-2548 -2569 0
-2548 -2570 0
-2548 -2571 0
-2548 -2572 0
-2548 -2573 0
-2548 -2574 0
-2548 -2575 0
-2548 -2576 0
-2548 -2577 0
-2548 -2578 0
-2548 -2579 0
-2548 -2580 0
-2548 -2581 0
-2548 -2582 0
-2548 -2583 0
-2548 -2584 0
-2548 -2585 0
-2548 -2586 0
-2548 -2587 0
-2548 -2588 0
-2548 -2589 0
-2548 -2590 0
-2548 -2591 0
-2548 -2592 0
-2548 -2593 0
-2548 -2594 0
-2548 -2595 0
-2548 -2596 0
-2548 -2597 0
-2548 -2598 0
-2548 -2599 0
-2548 -2600 0
-2548 -2601 0
-2548 -2602 0
-2548 -2603 0
-2548 -2604 0
-2548 -2605 0
-2548 -2606 0
-2548 -2607 0
-2548 -2608 0
-2548 -2609 0
-2548 -2610 0
-2548 -2611 0
-2548 -2612 0
-2548 -2613 0
-2548 -2614 0
-2548 -2615 0
-2549 -2550 0
-2549 -2551 0
-2549 -2552 0
-2549 -2553 0
-2549 -2554 0
-2549 -2555 0
-2549 -2556 0
-2549 -2557 0
-2549 -2558 0
-2549 -2559 0
-2549 -2560 0
-2549 -2561 0
-2549 -2562 0
-2549 -2563 0
-2549 -2564 0
-2549 -2565 0
-2549 -2566 0
-2549 -2567 0
-2549 -2568 0
-2549 -2569 0
-2549 -2570 0
-2549 -2571 0
-2549 -2572 0
-2549 -2573 0
-2549 -2574 0
-2549 -2575 0
-2549 -2576 0
-2549 -2577 0
-2549 -2578 0
-2549 -2579 0
-2549 -2580 0
-2549 -2581 0
-2549 -2582 0
-2549 -2583 0
-2549 -2584 0
-2549 -2585 0
-2549 -2586 0
-2549 -2587 0
-2549 -2588 0
-2549 -2589 0
-2549 -2590 0
-2549 -2591 0
-2549 -2592 0
-2549 -2593 0
-2549 -2594 0
-2549 -2595 0
-2549 -2596 0
-2549 -2597 0
-2549 -2598 0
-2549 -2599 0
-2549 -2600 0
-2549 -2601 0
-2549 -2602 0
-2549 -2603 0
-2549 -2604 0
-2549 -2605 0
-2549 -2606 0
-2549 -2607 0
-2549 -2608 0
-2549 -2609 0
-2549 -2610 0
-2549 -2611 0
-2549 -2612 0
-2549 -2613 0
-2549 -2614 0
-2549 -2615 0
-2550 -2551 0
-2550 -2552 0
-2550 -2553 0
-2550 -2554 0
-2550 -2555 0
-2550 -2556 0
-2550 -2557 0
-2550 -2558 0
-2550 -2559 0
-2550 -2560 0
-2550 -2561 0
-2550 -2562 0
-2550 -2563 0
-2550 -2564 0
-2550 -2565 0
-2550 -2566 0
-2550 -2567 0
-2550 -2568 0
-2550 -2569 0
-2550 -2570 0
-2550 -2571 0
-2550 -2572 0
-2550 -2573 0
-2550 -2574 0
-2550 -2575 0
-2550 -2576 0
-2550 -2577 0
-2550 -2578 0
-2550 -2579 0
-2550 -2580 0
-2550 -2581 0
-2550 -2582 0
-2550 -2583 0
-2550 -2584 0
-2550 -2585 0
-2550 -2586 0
-2550 -2587 0
-2550 -2588 0
-2550 -2589 0
-2550 -2590 0
-2550 -2591 0
-2550 -2592 0
-2550 -2593 0
-2550 -2594 0
-2550 -2595 0
-2550 -2596 0
-2550 -2597 0
-2550 -2598 0
-2550 -2599 0
-2550 -2600 0
-2550 -2601 0
-2550 -2602 0
-2550 -2603 0
-2550 -2604 0
-2550 -2605 0
-2550 -2606 0
-2550 -2607 0
-2550 -2608 0
-2550 -2609 0
-2550 -2610 0
-2550 -2611 0
-2550 -2612 0
-2550 -2613 0
-2550 -2614 0
-2550 -2615 0
-2551 -2552 0
-2551 -2553 0
-2551 -2554 0
-2551 -2555 0
-2551 -2556 0
-2551 -2557 0
-2551 -2558 0
-2551 -2559 0
-2551 -2560 0
-2551 -2561 0
-2551 -2562 0
-2551 -2563 0
-2551 -2564 0
-2551 -2565 0
-2551 -2566 0
-2551 -2567 0
-2551 -2568 0
-2551 -2569 0
-2551 -2570 0
-2551 -2571 0
-2551 -2572 0
-2551 -2573 0
-2551 -2574 0
-2551 -2575 0
-2551 -2576 0
-2551 -2577 0
-2551 -2578 0
-2551 -2579 0
-2551 -2580 0
-2551 -2581 0
-2551 -2582 0
-2551 -2583 0
-2551 -2584 0
-2551 -2585 0
-2551 -2586 0
-2551 -2587 0
-2551 -2588 0
-2551 -2589 0
-2551 -2590 0
-2551 -2591 0
-2551 -2592 0
-2551 -2593 0
-2551 -2594 0
-2551 -2595 0
-2551 -2596 0
-2551 -2597 0
-2551 -2598 0
-2551 -2599 0
-2551 -2600 0
-2551 -2601 0
-2551 -2602 0
-2551 -2603 0
-2551 -2604 0
-2551 -2605 0
-2551 -2606 0
-2551 -2607 0
-2551 -2608 0
-2551 -2609 0
-2551 -2610 0
-2551 -2611 0
-2551 -2612 0
-2551 -2613 0
-2551 -2614 0
-2551 -2615 0
-2552 -2553 0
-2552 -2554 0
-2552 -2555 0
-2552 -2556 0
-2552 -2557 0
-2552 -2558 0
-2552 -2559 0
-2552 -2560 0
-2552 -2561 0
-2552 -2562 0
-2552 -2563 0
-2552 -2564 0
-2552 -2565 0
-2552 -2566 0
-2552 -2567 0
-2552 -2568 0
-2552 -2569 0
-2552 -2570 0
-2552 -2571 0
-2552 -2572 0
-2552 -2573 0
-2552 -2574 0
-2552 -2575 0
-2552 -2576 0
-2552 -2577 0
-2552 -2578 0
-2552 -2579 0
-2552 -2580 0
-2552 -2581 0
-2552 -2582 0
-2552 -2583 0
-2552 -2584 0
-2552 -2585 0
-2552 -2586 0
-2552 -2587 0
-2552 -2588 0
-2552 -2589 0
-2552 -2590 0
-2552 -2591 0
-2552 -2592 0
-2552 -2593 0
-2552 -2594 0
-2552 -2595 0
-2552 -2596 0
-2552 -2597 0
-2552 -2598 0
-2552 -2599 0
-2552 -2600 0
-2552 -2601 0
-2552 -2602 0
-2552 -2603 0
-2552 -2604 0
-2552 -2605 0
-2552 -2606 0
-2552 -2607 0
-2552 -2608 0
-2552 -2609 0
-2552 -2610 0
-2552 -2611 0
-2552 -2612 0
-2552 -2613 0
-2552 -2614 0
-2552 -2615 0
-2553 -2554 0
-2553 -2555 0
-2553 -2556 0
-2553 -2557 0
-2553 -2558 0
-2553 -2559 0
-2553 -2560 0
-2553 -2561 0
-2553 -2562 0
-2553 -2563 0
-2553 -2564 0
-2553 -2565 0
-2553 -2566 0
-2553 -2567 0
-2553 -2568 0
-2553 -2569 0
-2553 -2570 0
-2553 -2571 0
-2553 -2572 0
-2553 -2573 0
-2553 -2574 0
-2553 -2575 0
-2553 -2576 0
-2553 -2577 0
-2553 -2578 0
-2553 -2579 0
-2553 -2580 0
-2553 -2581 0
-2553 -2582 0
-2553 -2583 0
-2553 -2584 0
-2553 -2585 0
-2553 -2586 0
-2553 -2587 0
-2553 -2588 0
-2553 -2589 0
-2553 -2590 0
-2553 -2591 0
-2553 -2592 0
-2553 -2593 0
-2553 -2594 0
-2553 -2595 0
-2553 -2596 0
-2553 -2597 0
-2553 -2598 0
-2553 -2599 0
-2553 -2600 0
-2553 -2601 0
-2553 -2602 0
-2553 -2603 0
-2553 -2604 0
-2553 -2605 0
-2553 -2606 0
-2553 -2607 0
-2553 -2608 0
-2553 -2609 0
-2553 -2610 0
-2553 -2611 0
-2553 -2612 0
-2553 -2613 0
-2553 -2614 0
-2553 -2615 0
-2554 -2555 0
-2554 -2556 0
-2554 -2557 0
-2554 -2558 0
-2554 -2559 0
-2554 -2560 0
-2554 -2561 0
-2554 -2562 0
-2554 -2563 0
-2554 -2564 0
-2554 -2565 0
-2554 -2566 0
-2554 -2567 0
-2554 -2568 0
-2554 -2569 0
-2554 -2570 0
-2554 -2571 0
-2554 -2572 0
-2554 -2573 0
-2554 -2574 0
-2554 -2575 0
-2554 -2576 0
-2554 -2577 0
-2554 -2578 0
-2554 -2579 0
-2554 -2580 0
-2554 -2581 0
-2554 -2582 0
-2554 -2583 0
-2554 -2584 0
-2554 -2585 0
-2554 -2586 0
-2554 -2587 0
-2554 -2588 0
-2554 -2589 0
-2554 -2590 0
-2554 -2591 0
-2554 -2592 0
-2554 -2593 0
-2554 -2594 0
-2554 -2595 0
-2554 -2596 0
-2554 -2597 0
-2554 -2598 0
-2554 -2599 0
-2554 -2600 0
-2554 -2601 0
-2554 -2602 0
-2554 -2603 0
-2554 -2604 0
-2554 -2605 0
-2554 -2606 0
-2554 -2607 0
-2554 -2608 0
-2554 -2609 0
-2554 -2610 0
-2554 -2611 0
-2554 -2612 0
-2554 -2613 0
-2554 -2614 0
-2554 -2615 0
-2555 -2556 0
-2555 -2557 0
-2555 -2558 0
-2555 -2559 0
-2555 -2560 0
-2555 -2561 0
-2555 -2562 0
-2555 -2563 0
-2555 -2564 0
-2555 -2565 0
-2555 -2566 0
-2555 -2567 0
-2555 -2568 0
-2555 -2569 0
-2555 -2570 0
-2555 -2571 0
-2555 -2572 0
-2555 -2573 0
-2555 -2574 0
-2555 -2575 0
-2555 -2576 0
-2555 -2577 0
-2555 -2578 0
-2555 -2579 0
-2555 -2580 0
-2555 -2581 0
-2555 -2582 0
-2555 -2583 0
-2555 -2584 0
-2555 -2585 0
-2555 -2586 0
-2555 -2587 0
-2555 -2588 0
-2555 -2589 0
-2555 -2590 0
-2555 -2591 0
-2555 -2592 0
-2555 -2593 0
-2555 -2594 0
-2555 -2595 0
-2555 -2596 0
-2555 -2597 0
-2555 -2598 0
-2555 -2599 0
-2555 -2600 0
-2555 -2601 0
-2555 -2602 0
-2555 -2603 0
-2555 -2604 0
-2555 -2605 0
-2555 -2606 0
-2555 -2607 0
-2555 -2608 0
-2555 -2609 0
-2555 -2610 0
-2555 -2611 0
-2555 -2612 0
-2555 -2613 0
-2555 -2614 0
-2555 -2615 0
-2556 -2557 0
-2556 -2558 0
-2556 -2559 0
-2556 -2560 0
-2556 -2561 0
-2556 -2562 0
-2556 -2563 0
-2556 -2564 0
-2556 -2565 0
-2556 -2566 0
-2556 -2567 0
-2556 -2568 0
-2556 -2569 0
-2556 -2570 0
-2556 -2571 0
-2556 -2572 0
-2556 -2573 0
-2556 -2574 0
-2556 -2575 0
-2556 -2576 0
-2556 -2577 0
-2556 -2578 0
-2556 -2579 0
-2556 -2580 0
-2556 -2581 0
-2556 -2582 0
-2556 -2583 0
-2556 -2584 0
-2556 -2585 0
-2556 -2586 0
-2556 -2587 0
-2556 -2588 0
-2556 -2589 0
-2556 -2590 0
-2556 -2591 0
-2556 -2592 0
-2556 -2593 0
-2556 -2594 0
-2556 -2595 0
-2556 -2596 0
-2556 -2597 0
-2556 -2598 0
-2556 -2599 0
-2556 -2600 0
-2556 -2601 0
-2556 -2602 0
-2556 -2603 0
-2556 -2604 0
-2556 -2605 0
-2556 -2606 0
-2556 -2607 0
-2556 -2608 0
-2556 -2609 0
-2556 -2610 0
-2556 -2611 0
-2556 -2612 0
-2556 -2613 0
-2556 -2614 0
-2556 -2615 0
-2557 -2558 0
-2557 -2559 0
-2557 -2560 0
-2557 -2561 0
-2557 -2562 0
-2557 -2563 0
-2557 -2564 0
-2557 -2565 0
-2557 -2566 0
-2557 -2567 0
-2557 -2568 0
-2557 -2569 0
-2557 -2570 0
-2557 -2571 0
-2557 -2572 0
-2557 -2573 0
-2557 -2574 0
-2557 -2575 0
-2557 -2576 0
-2557 -2577 0
-2557 -2578 0
-2557 -2579 0
-2557 -2580 0
-2557 -2581 0
-2557 -2582 0
-2557 -2583 0
-2557 -2584 0
-2557 -2585 0
-2557 -2586 0
-2557 -2587 0
-2557 -2588 0
-2557 -2589 0
-2557 -2590 0
-2557 -2591 0
-2557 -2592 0
-2557 -2593 0
-2557 -2594 0
-2557 -2595 0
-2557 -2596 0
-2557 -2597 0
-2557 -2598 0
-2557 -2599 0
-2557 -2600 0
-2557 -2601 0
-2557 -2602 0
-2557 -2603 0
-2557 -2604 0
-2557 -2605 0
-2557 -2606 0
-2557 -2607 0
-2557 -2608 0
-2557 -2609 0
-2557 -2610 0
-2557 -2611 0
-2557 -2612 0
-2557 -2613 0
-2557 -2614 0
-2557 -2615 0
-2558 -2559 0
-2558 -2560 0
-2558 -2561 0
-2558 -2562 0
-2558 -2563 0
-2558 -2564 0
-2558 -2565 0
-2558 -2566 0
-2558 -2567 0
-2558 -2568 0
-2558 -2569 0
-2558 -2570 0
-2558 -2571 0
-2558 -2572 0
-2558 -2573 0
-2558 -2574 0
-2558 -2575 0
-2558 -2576 0
-2558 -2577 0
-2558 -2578 0
-2558 -2579 0
-2558 -2580 0
-2558 -2581 0
-2558 -2582 0
-2558 -2583 0
-2558 -2584 0
-2558 -2585 0
-2558 -2586 0
-2558 -2587 0
-2558 -2588 0
-2558 -2589 0
-2558 -2590 0
-2558 -2591 0
-2558 -2592 0
-2558 -2593 0
-2558 -2594 0
-2558 -2595 0
-2558 -2596 0
-2558 -2597 0
-2558 -2598 0
-2558 -2599 0
-2558 -2600 0
-2558 -2601 0
-2558 -2602 0
-2558 -2603 0
-2558 -2604 0
-2558 -2605 0
-2558 -2606 0
-2558 -2607 0
-2558 -2608 0
-2558 -2609 0
-2558 -2610 0
-2558 -2611 0
-2558 -2612 0
-2558 -2613 0
-2558 -2614 0
-2558 -2615 0
-2559 -2560 0
-2559 -2561 0
-2559 -2562 0
-2559 -2563 0
-2559 -2564 0
-2559 -2565 0
-2559 -2566 0
-2559 -2567 0
-2559 -2568 0
-2559 -2569 0
-2559 -2570 0
-2559 -2571 0
-2559 -2572 0
-2559 -2573 0
-2559 -2574 0
-2559 -2575 0
-2559 -2576 0
-2559 -2577 0
-2559 -2578 0
-2559 -2579 0
-2559 -2580 0
-2559 -2581 0
-2559 -2582 0
-2559 -2583 0
-2559 -2584 0
-2559 -2585 0
-2559 -2586 0
-2559 -2587 0
-2559 -2588 0
-2559 -2589 0
-2559 -2590 0
-2559 -2591 0
-2559 -2592 0
-2559 -2593 0
-2559 -2594 0
-2559 -2595 0
-2559 -2596 0
-2559 -2597 0
-2559 -2598 0
-2559 -2599 0
-2559 -2600 0
-2559 -2601 0
-2559 -2602 0
-2559 -2603 0
-2559 -2604 0
-2559 -2605 0
-2559 -2606 0
-2559 -2607 0
-2559 -2608 0
-2559 -2609 0
-2559 -2610 0
-2559 -2611 0
-2559 -2612 0
-2559 -2613 0
-2559 -2614 0
-2559 -2615 0
-2560 -2561 0
-2560 -2562 0
-2560 -2563 0
-2560 -2564 0
-2560 -2565 0
-2560 -2566 0
-2560 -2567 0
-2560 -2568 0
-2560 -2569 0
-2560 -2570 0
-2560 -2571 0
-2560 -2572 0
-2560 -2573 0
-2560 -2574 0
-2560 -2575 0
-2560 -2576 0
-2560 -2577 0
-2560 -2578 0
-2560 -2579 0
-2560 -2580 0
-2560 -2581 0
-2560 -2582 0
-2560 -2583 0
-2560 -2584 0
-2560 -2585 0
-2560 -2586 0
-2560 -2587 0
-2560 -2588 0
-2560 -2589 0
-2560 -2590 0
-2560 -2591 0
-2560 -2592 0
-2560 -2593 0
-2560 -2594 0
-2560 -2595 0
-2560 -2596 0
-2560 -2597 0
-2560 -2598 0
-2560 -2599 0
-2560 -2600 0
-2560 -2601 0
-2560 -2602 0
-2560 -2603 0
-2560 -2604 0
-2560 -2605 0
-2560 -2606 0
-2560 -2607 0
-2560 -2608 0
-2560 -2609 0
-2560 -2610 0
-2560 -2611 0
-2560 -2612 0
-2560 -2613 0
-2560 -2614 0
-2560 -2615 0
-2561 -2562 0
-2561 -2563 0
-2561 -2564 0
-2561 -2565 0
-2561 -2566 0
-2561 -2567 0
-2561 -2568 0
-2561 -2569 0
-2561 -2570 0
-2561 -2571 0
-2561 -2572 0
-2561 -2573 0
-2561 -2574 0
-2561 -2575 0
-2561 -2576 0
-2561 -2577 0
-2561 -2578 0
-2561 -2579 0
-2561 -2580 0
-2561 -2581 0
-2561 -2582 0
-2561 -2583 0
-2561 -2584 0
-2561 -2585 0
-2561 -2586 0
-2561 -2587 0
-2561 -2588 0
-2561 -2589 0
-2561 -2590 0
-2561 -2591 0
-2561 -2592 0
-2561 -2593 0
-2561 -2594 0
-2561 -2595 0
-2561 -2596 0
-2561 -2597 0
-2561 -2598 0
-2561 -2599 0
-2561 -2600 0
-2561 -2601 0
-2561 -2602 0
-2561 -2603 0
-2561 -2604 0
-2561 -2605 0
-2561 -2606 0
-2561 -2607 0
-2561 -2608 0
-2561 -2609 0
-2561 -2610 0
-2561 -2611 0
-2561 -2612 0
-2561 -2613 0
-2561 -2614 0
-2561 -2615 0
-2562 -2563 0
-2562 -2564 0
-2562 -2565 0
-2562 -2566 0
-2562 -2567 0
-2562 -2568 0
-2562 -2569 0
-2562 -2570 0
-2562 -2571 0
-2562 -2572 0
-2562 -2573 0
-2562 -2574 0
-2562 -2575 0
-2562 -2576 0
-2562 -2577 0
-2562 -2578 0
-2562 -2579 0
-2562 -2580 0
-2562 -2581 0
-2562 -2582 0
-2562 -2583 0
-2562 -2584 0
-2562 -2585 0
-2562 -2586 0
-2562 -2587 0
-2562 -2588 0
-2562 -2589 0
-2562 -2590 0
-2562 -2591 0
-2562 -2592 0
-2562 -2593 0
-2562 -2594 0
-2562 -2595 0
-2562 -2596 0
-2562 -2597 0
-2562 -2598 0
-2562 -2599 0
-2562 -2600 0
-2562 -2601 0
-2562 -2602 0
-2562 -2603 0
-2562 -2604 0
-2562 -2605 0
-2562 -2606 0
-2562 -2607 0
-2562 -2608 0
-2562 -2609 0
-2562 -2610 0
-2562 -2611 0
-2562 -2612 0
-2562 -2613 0
-2562 -2614 0
-2562 -2615 0
-2563 -2564 0
-2563 -2565 0
-2563 -2566 0
-2563 -2567 0
-2563 -2568 0
-2563 -2569 0
-2563 -2570 0
-2563 -2571 0
-2563 -2572 0
-2563 -2573 0
-2563 -2574 0
-2563 -2575 0
-2563 -2576 0
-2563 -2577 0
-2563 -2578 0
-2563 -2579 0
-2563 -2580 0
-2563 -2581 0
-2563 -2582 0
-2563 -2583 0
-2563 -2584 0
-2563 -2585 0
-2563 -2586 0
-2563 -2587 0
-2563 -2588 0
-2563 -2589 0
-2563 -2590 0
-2563 -2591 0
-2563 -2592 0
-2563 -2593 0
-2563 -2594 0
-2563 -2595 0
-2563 -2596 0
-2563 -2597 0
-2563 -2598 0
-2563 -2599 0
-2563 -2600 0
-2563 -2601 0
-2563 -2602 0
-2563 -2603 0
-2563 -2604 0
-2563 -2605 0
-2563 -2606 0
-2563 -2607 0
-2563 -2608 0
-2563 -2609 0
-2563 -2610 0
-2563 -2611 0
-2563 -2612 0
-2563 -2613 0
-2563 -2614 0
-2563 -2615 0
-2564 -2565 0
-2564 -2566 0
-2564 -2567 0
-2564 -2568 0
-2564 -2569 0
-2564 -2570 0
-2564 -2571 0
-2564 -2572 0
-2564 -2573 0
-2564 -2574 0
-2564 -2575 0
-2564 -2576 0
-2564 -2577 0
-2564 -2578 0
-2564 -2579 0
-2564 -2580 0
-2564 -2581 0
-2564 -2582 0
-2564 -2583 0
-2564 -2584 0
-2564 -2585 0
-2564 -2586 0
-2564 -2587 0
-2564 -2588 0
-2564 -2589 0
-2564 -2590 0
-2564 -2591 0
-2564 -2592 0
-2564 -2593 0
-2564 -2594 0
-2564 -2595 0
-2564 -2596 0
-2564 -2597 0
-2564 -2598 0
-2564 -2599 0
-2564 -2600 0
-2564 -2601 0
-2564 -2602 0
-2564 -2603 0
-2564 -2604 0
-2564 -2605 0
-2564 -2606 0
-2564 -2607 0
-2564 -2608 0
-2564 -2609 0
-2564 -2610 0
-2564 -2611 0
-2564 -2612 0
-2564 -2613 0
-2564 -2614 0
-2564 -2615 0
-2565 -2566 0
-2565 -2567 0
-2565 -2568 0
-2565 -2569 0
-2565 -2570 0
-2565 -2571 0
-2565 -2572 0
-2565 -2573 0
-2565 -2574 0
-2565 -2575 0
-2565 -2576 0
-2565 -2577 0
-2565 -2578 0
-2565 -2579 0
-2565 -2580 0
-2565 -2581 0
-2565 -2582 0
-2565 -2583 0
-2565 -2584 0
-2565 -2585 0
-2565 -2586 0
-2565 -2587 0
-2565 -2588 0
-2565 -2589 0
-2565 -2590 0
-2565 -2591 0
-2565 -2592 0
-2565 -2593 0
-2565 -2594 0
-2565 -2595 0
-2565 -2596 0
-2565 -2597 0
-2565 -2598 0
-2565 -2599 0
-2565 -2600 0
-2565 -2601 0
-2565 -2602 0
-2565 -2603 0
-2565 -2604 0
-2565 -2605 0
-2565 -2606 0
-2565 -2607 0
-2565 -2608 0
-2565 -2609 0
-2565 -2610 0
-2565 -2611 0
-2565 -2612 0
-2565 -2613 0
-2565 -2614 0
-2565 -2615 0
-2566 -2567 0
-2566 -2568 0
-2566 -2569 0
-2566 -2570 0
-2566 -2571 0
-2566 -2572 0
-2566 -2573 0
-2566 -2574 0
-2566 -2575 0
-2566 -2576 0
-2566 -2577 0
-2566 -2578 0
-2566 -2579 0
-2566 -2580 0
-2566 -2581 0
-2566 -2582 0
-2566 -2583 0
-2566 -2584 0
-2566 -2585 0
-2566 -2586 0
-2566 -2587 0
-2566 -2588 0
-2566 -2589 0
-2566 -2590 0
-2566 -2591 0
-2566 -2592 0
-2566 -2593 0
-2566 -2594 0
-2566 -2595 0
-2566 -2596 0
-2566 -2597 0
-2566 -2598 0
-2566 -2599 0
-2566 -2600 0
-2566 -2601 0
-2566 -2602 0
-2566 -2603 0
-2566 -2604 0
-2566 -2605 0
-2566 -2606 0
-2566 -2607 0
-2566 -2608 0
-2566 -2609 0
-2566 -2610 0
-2566 -2611 0
-2566 -2612 0
-2566 -2613 0
-2566 -2614 0
-2566 -2615 0
-2567 -2568 0
-2567 -2569 0
-2567 -2570 0
-2567 -2571 0
-2567 -2572 0
-2567 -2573 0
-2567 -2574 0
-2567 -2575 0
-2567 -2576 0
-2567 -2577 0
-2567 -2578 0
-2567 -2579 0
-2567 -2580 0
-2567 -2581 0
-2567 -2582 0
-2567 -2583 0
-2567 -2584 0
-2567 -2585 0
-2567 -2586 0
-2567 -2587 0
-2567 -2588 0
-2567 -2589 0
-2567 -2590 0
-2567 -2591 0
-2567 -2592 0
-2567 -2593 0
-2567 -2594 0
-2567 -2595 0
-2567 -2596 0
-2567 -2597 0
-2567 -2598 0
-2567 -2599 0
-2567 -2600 0
-2567 -2601 0
-2567 -2602 0
-2567 -2603 0
-2567 -2604 0
-2567 -2605 0
-2567 -2606 0
-2567 -2607 0
-2567 -2608 0
-2567 -2609 0
-2567 -2610 0
-2567 -2611 0
-2567 -2612 0
-2567 -2613 0
-2567 -2614 0
-2567 -2615 0
-2568 -2569 0
-2568 -2570 0
-2568 -2571 0
-2568 -2572 0
-2568 -2573 0
-2568 -2574 0
-2568 -2575 0
-2568 -2576 0
-2568 -2577 0
-2568 -2578 0
-2568 -2579 0
-2568 -2580 0
-2568 -2581 0
-2568 -2582 0
-2568 -2583 0
-2568 -2584 0
-2568 -2585 0
-2568 -2586 0
-2568 -2587 0
-2568 -2588 0
-2568 -2589 0
-2568 -2590 0
-2568 -2591 0
-2568 -2592 0
-2568 -2593 0
-2568 -2594 0
-2568 -2595 0
-2568 -2596 0
-2568 -2597 0
-2568 -2598 0
-2568 -2599 0
-2568 -2600 0
-2568 -2601 0
-2568 -2602 0
-2568 -2603 0
-2568 -2604 0
-2568 -2605 0
-2568 -2606 0
-2568 -2607 0
-2568 -2608 0
-2568 -2609 0
-2568 -2610 0
-2568 -2611 0
-2568 -2612 0
-2568 -2613 0
-2568 -2614 0
-2568 -2615 0
-2569 -2570 0
-2569 -2571 0
-2569 -2572 0
-2569 -2573 0
-2569 -2574 0
-2569 -2575 0
-2569 -2576 0
-2569 -2577 0
-2569 -2578 0
-2569 -2579 0
-2569 -2580 0
-2569 -2581 0
-2569 -2582 0
-2569 -2583 0
-2569 -2584 0
-2569 -2585 0
-2569 -2586 0
-2569 -2587 0
-2569 -2588 0
-2569 -2589 0
-2569 -2590 0
-2569 -2591 0
-2569 -2592 0
-2569 -2593 0
-2569 -2594 0
-2569 -2595 0
-2569 -2596 0
-2569 -2597 0
-2569 -2598 0
-2569 -2599 0
-2569 -2600 0
-2569 -2601 0
-2569 -2602 0
-2569 -2603 0
-2569 -2604 0
-2569 -2605 0
-2569 -2606 0
-2569 -2607 0
-2569 -2608 0
-2569 -2609 0
-2569 -2610 0
-2569 -2611 0
-2569 -2612 0
-2569 -2613 0
-2569 -2614 0
-2569 -2615 0
-2570 -2571 0
-2570 -2572 0
-2570 -2573 0
-2570 -2574 0
-2570 -2575 0
-2570 -2576 0
-2570 -2577 0
-2570 -2578 0
-2570 -2579 0
-2570 -2580 0
-2570 -2581 0
-2570 -2582 0
-2570 -2583 0
-2570 -2584 0
-2570 -2585 0
-2570 -2586 0
-2570 -2587 0
-2570 -2588 0
-2570 -2589 0
-2570 -2590 0
-2570 -2591 0
-2570 -2592 0
-2570 -2593 0
-2570 -2594 0
-2570 -2595 0
-2570 -2596 0
-2570 -2597 0
-2570 -2598 0
-2570 -2599 0
-2570 -2600 0
-2570 -2601 0
-2570 -2602 0
-2570 -2603 0
-2570 -2604 0
-2570 -2605 0
-2570 -2606 0
-2570 -2607 0
-2570 -2608 0
-2570 -2609 0
-2570 -2610 0
-2570 -2611 0
-2570 -2612 0
-2570 -2613 0
-2570 -2614 0
-2570 -2615 0
-2571 -2572 0
-2571 -2573 0
-2571 -2574 0
-2571 -2575 0
-2571 -2576 0
-2571 -2577 0
-2571 -2578 0
-2571 -2579 0
-2571 -2580 0
-2571 -2581 0
-2571 -2582 0
-2571 -2583 0
-2571 -2584 0
-2571 -2585 0
-2571 -2586 0
-2571 -2587 0
-2571 -2588 0
-2571 -2589 0
-2571 -2590 0
-2571 -2591 0
-2571 -2592 0
-2571 -2593 0
-2571 -2594 0
-2571 -2595 0
-2571 -2596 0
-2571 -2597 0
-2571 -2598 0
-2571 -2599 0
-2571 -2600 0
-2571 -2601 0
-2571 -2602 0
-2571 -2603 0
-2571 -2604 0
-2571 -2605 0
-2571 -2606 0
-2571 -2607 0
-2571 -2608 0
-2571 -2609 0
-2571 -2610 0
-2571 -2611 0
-2571 -2612 0
-2571 -2613 0
-2571 -2614 0
-2571 -2615 0
-2572 -2573 0
-2572 -2574 0
-2572 -2575 0
-2572 -2576 0
-2572 -2577 0
-2572 -2578 0
-2572 -2579 0
-2572 -2580 0
-2572 -2581 0
-2572 -2582 0
-2572 -2583 0
-2572 -2584 0
-2572 -2585 0
-2572 -2586 0
-2572 -2587 0
-2572 -2588 0
-2572 -2589 0
-2572 -2590 0
-2572 -2591 0
-2572 -2592 0
-2572 -2593 0
-2572 -2594 0
-2572 -2595 0
-2572 -2596 0
-2572 -2597 0
-2572 -2598 0
-2572 -2599 0
-2572 -2600 0
-2572 -2601 0
-2572 -2602 0
-2572 -2603 0
-2572 -2604 0
-2572 -2605 0
-2572 -2606 0
-2572 -2607 0
-2572 -2608 0
-2572 -2609 0
-2572 -2610 0
-2572 -2611 0
-2572 -2612 0
-2572 -2613 0
-2572 -2614 0
-2572 -2615 0
-2573 -2574 0
-2573 -2575 0
-2573 -2576 0
-2573 -2577 0
-2573 -2578 0
-2573 -2579 0
-2573 -2580 0
-2573 -2581 0
-2573 -2582 0
-2573 -2583 0
-2573 -2584 0
-2573 -2585 0
-2573 -2586 0
-2573 -2587 0
-2573 -2588 0
-2573 -2589 0
-2573 -2590 0
-2573 -2591 0
-2573 -2592 0
-2573 -2593 0
-2573 -2594 0
-2573 -2595 0
-2573 -2596 0
-2573 -2597 0
-2573 -2598 0
-2573 -2599 0
-2573 -2600 0
-2573 -2601 0
-2573 -2602 0
-2573 -2603 0
-2573 -2604 0
-2573 -2605 0
-2573 -2606 0
-2573 -2607 0
-2573 -2608 0
-2573 -2609 0
-2573 -2610 0
-2573 -2611 0
-2573 -2612 0
-2573 -2613 0
-2573 -2614 0
-2573 -2615 0
-2574 -2575 0
-2574 -2576 0
-2574 -2577 0
-2574 -2578 0
-2574 -2579 0
-2574 -2580 0
-2574 -2581 0
-2574 -2582 0
-2574 -2583 0
-2574 -2584 0
-2574 -2585 0
-2574 -2586 0
-2574 -2587 0
-2574 -2588 0
-2574 -2589 0
-2574 -2590 0
-2574 -2591 0
-2574 -2592 0
-2574 -2593 0
-2574 -2594 0
-2574 -2595 0
-2574 -2596 0
-2574 -2597 0
-2574 -2598 0
-2574 -2599 0
-2574 -2600 0
-2574 -2601 0
-2574 -2602 0
-2574 -2603 0
-2574 -2604 0
-2574 -2605 0
-2574 -2606 0
-2574 -2607 0
-2574 -2608 0
-2574 -2609 0
-2574 -2610 0
-2574 -2611 0
-2574 -2612 0
-2574 -2613 0
-2574 -2614 0
-2574 -2615 0
-2575 -2576 0
-2575 -2577 0
-2575 -2578 0
-2575 -2579 0
-2575 -2580 0
-2575 -2581 0
-2575 -2582 0
-2575 -2583 0
-2575 -2584 0
-2575 -2585 0
-2575 -2586 0
-2575 -2587 0
-2575 -2588 0
-2575 -2589 0
-2575 -2590 0
-2575 -2591 0
-2575 -2592 0
-2575 -2593 0
-2575 -2594 0
-2575 -2595 0
-2575 -2596 0
-2575 -2597 0
-2575 -2598 0
-2575 -2599 0
-2575 -2600 0
-2575 -2601 0
-2575 -2602 0
-2575 -2603 0
-2575 -2604 0
-2575 -2605 0
-2575 -2606 0
-2575 -2607 0
-2575 -2608 0
-2575 -2609 0
-2575 -2610 0
-2575 -2611 0
-2575 -2612 0
-2575 -2613 0
-2575 -2614 0
-2575 -2615 0
-2576 -2577 0
-2576 -2578 0
-2576 -2579 0
-2576 -2580 0
-2576 -2581 0
-2576 -2582 0
-2576 -2583 0
-2576 -2584 0
-2576 -2585 0
-2576 -2586 0
-2576 -2587 0
-2576 -2588 0
-2576 -2589 0
-2576 -2590 0
-2576 -2591 0
-2576 -2592 0
-2576 -2593 0
-2576 -2594 0
-2576 -2595 0
-2576 -2596 0
-2576 -2597 0
-2576 -2598 0
-2576 -2599 0
-2576 -2600 0
-2576 -2601 0
-2576 -2602 0
-2576 -2603 0
-2576 -2604 0
-2576 -2605 0
-2576 -2606 0
-2576 -2607 0
-2576 -2608 0
-2576 -2609 0
-2576 -2610 0
-2576 -2611 0
-2576 -2612 0
-2576 -2613 0
-2576 -2614 0
-2576 -2615 0
-2577 -2578 0
-2577 -2579 0
-2577 -2580 0
-2577 -2581 0
-2577 -2582 0
-2577 -2583 0
-2577 -2584 0
-2577 -2585 0
-2577 -2586 0
-2577 -2587 0
-2577 -2588 0
-2577 -2589 0
-2577 -2590 0
-2577 -2591 0
-2577 -2592 0
-2577 -2593 0
-2577 -2594 0
-2577 -2595 0
-2577 -2596 0
-2577 -2597 0
-2577 -2598 0
-2577 -2599 0
-2577 -2600 0
-2577 -2601 0
-2577 -2602 0
-2577 -2603 0
-2577 -2604 0
-2577 -2605 0
-2577 -2606 0
-2577 -2607 0
-2577 -2608 0
-2577 -2609 0
-2577 -2610 0
-2577 -2611 0
-2577 -2612 0
-2577 -2613 0
-2577 -2614 0
-2577 -2615 0
-2578 -2579 0
-2578 -2580 0
-2578 -2581 0
-2578 -2582 0
-2578 -2583 0
-2578 -2584 0
-2578 -2585 0
-2578 -2586 0
-2578 -2587 0
-2578 -2588 0
-2578 -2589 0
-2578 -2590 0
-2578 -2591 0
-2578 -2592 0
-2578 -2593 0
-2578 -2594 0
-2578 -2595 0
-2578 -2596 0
-2578 -2597 0
-2578 -2598 0
-2578 -2599 0
-2578 -2600 0
-2578 -2601 0
-2578 -2602 0
-2578 -2603 0
-2578 -2604 0
-2578 -2605 0
-2578 -2606 0
-2578 -2607 0
-2578 -2608 0
-2578 -2609 0
-2578 -2610 0
-2578 -2611 0
-2578 -2612 0
-2578 -2613 0
-2578 -2614 0
-2578 -2615 0
-2579 -2580 0
-2579 -2581 0
-2579 -2582 0
-2579 -2583 0
-2579 -2584 0
-2579 -2585 0
-2579 -2586 0
-2579 -2587 0
-2579 -2588 0
-2579 -2589 0
-2579 -2590 0
-2579 -2591 0
-2579 -2592 0
-2579 -2593 0
-2579 -2594 0
-2579 -2595 0
-2579 -2596 0
-2579 -2597 0
-2579 -2598 0
-2579 -2599 0
-2579 -2600 0
-2579 -2601 0
-2579 -2602 0
-2579 -2603 0
-2579 -2604 0
-2579 -2605 0
-2579 -2606 0
-2579 -2607 0
-2579 -2608 0
-2579 -2609 0
-2579 -2610 0
-2579 -2611 0
-2579 -2612 0
-2579 -2613 0
-2579 -2614 0
-2579 -2615 0
-2580 -2581 0
-2580 -2582 0
-2580 -2583 0
-2580 -2584 0
-2580 -2585 0
-2580 -2586 0
-2580 -2587 0
-2580 -2588 0
-2580 -2589 0
-2580 -2590 0
-2580 -2591 0
-2580 -2592 0
-2580 -2593 0
-2580 -2594 0
-2580 -2595 0
-2580 -2596 0
-2580 -2597 0
-2580 -2598 0
-2580 -2599 0
-2580 -2600 0
-2580 -2601 0
-2580 -2602 0
-2580 -2603 0
-2580 -2604 0
-2580 -2605 0
-2580 -2606 0
-2580 -2607 0
-2580 -2608 0
-2580 -2609 0
-2580 -2610 0
-2580 -2611 0
-2580 -2612 0
-2580 -2613 0
-2580 -2614 0
-2580 -2615 0
-2581 -2582 0
-2581 -2583 0
-2581 -2584 0
-2581 -2585 0
-2581 -2586 0
-2581 -2587 0
-2581 -2588 0
-2581 -2589 0
-2581 -2590 0
-2581 -2591 0
-2581 -2592 0
-2581 -2593 0
-2581 -2594 0
-2581 -2595 0
-2581 -2596 0
-2581 -2597 0
-2581 -2598 0
-2581 -2599 0
-2581 -2600 0
-2581 -2601 0
-2581 -2602 0
-2581 -2603 0
-2581 -2604 0
-2581 -2605 0
-2581 -2606 0
-2581 -2607 0
-2581 -2608 0
-2581 -2609 0
-2581 -2610 0
-2581 -2611 0
-2581 -2612 0
-2581 -2613 0
-2581 -2614 0
-2581 -2615 0
-2582 -2583 0
-2582 -2584 0
-2582 -2585 0
-2582 -2586 0
-2582 -2587 0
-2582 -2588 0
-2582 -2589 0
-2582 -2590 0
-2582 -2591 0
-2582 -2592 0
-2582 -2593 0
-2582 -2594 0
-2582 -2595 0
-2582 -2596 0
-2582 -2597 0
-2582 -2598 0
-2582 -2599 0
-2582 -2600 0
-2582 -2601 0
-2582 -2602 0
-2582 -2603 0
-2582 -2604 0
-2582 -2605 0
-2582 -2606 0
-2582 -2607 0
-2582 -2608 0
-2582 -2609 0
-2582 -2610 0
-2582 -2611 0
-2582 -2612 0
-2582 -2613 0
-2582 -2614 0
-2582 -2615 0
-2583 -2584 0
-2583 -2585 0
-2583 -2586 0
-2583 -2587 0
-2583 -2588 0
-2583 -2589 0
-2583 -2590 0
-2583 -2591 0
-2583 -2592 0
-2583 -2593 0
-2583 -2594 0
-2583 -2595 0
-2583 -2596 0
-2583 -2597 0
-2583 -2598 0
-2583 -2599 0
-2583 -2600 0
-2583 -2601 0
-2583 -2602 0
-2583 -2603 0
-2583 -2604 0
-2583 -2605 0
-2583 -2606 0
-2583 -2607 0
-2583 -2608 0
-2583 -2609 0
-2583 -2610 0
-2583 -2611 0
-2583 -2612 0
-2583 -2613 0
-2583 -2614 0
-2583 -2615 0
-2584 -2585 0
-2584 -2586 0
-2584 -2587 0
-2584 -2588 0
-2584 -2589 0
-2584 -2590 0
-2584 -2591 0
-2584 -2592 0
-2584 -2593 0
-2584 -2594 0
-2584 -2595 0
-2584 -2596 0
-2584 -2597 0
-2584 -2598 0
-2584 -2599 0
-2584 -2600 0
-2584 -2601 0
-2584 -2602 0
-2584 -2603 0
-2584 -2604 0
-2584 -2605 0
-2584 -2606 0
-2584 -2607 0
-2584 -2608 0
-2584 -2609 0
-2584 -2610 0
-2584 -2611 0
-2584 -2612 0
-2584 -2613 0
-2584 -2614 0
-2584 -2615 0
-2585 -2586 0
-2585 -2587 0
-2585 -2588 0
-2585 -2589 0
-2585 -2590 0
-2585 -2591 0
-2585 -2592 0
-2585 -2593 0
-2585 -2594 0
-2585 -2595 0
-2585 -2596 0
-2585 -2597 0
-2585 -2598 0
-2585 -2599 0
-2585 -2600 0
-2585 -2601 0
-2585 -2602 0
-2585 -2603 0
-2585 -2604 0
-2585 -2605 0
-2585 -2606 0
-2585 -2607 0
-2585 -2608 0
-2585 -2609 0
-2585 -2610 0
-2585 -2611 0
-2585 -2612 0
-2585 -2613 0
-2585 -2614 0
-2585 -2615 0
-2586 -2587 0
-2586 -2588 0
-2586 -2589 0
-2586 -2590 0
-2586 -2591 0
-2586 -2592 0
-2586 -2593 0
-2586 -2594 0
-2586 -2595 0
-2586 -2596 0
-2586 -2597 0
-2586 -2598 0
-2586 -2599 0
-2586 -2600 0
-2586 -2601 0
-2586 -2602 0
-2586 -2603 0
-2586 -2604 0
-2586 -2605 0
-2586 -2606 0
-2586 -2607 0
-2586 -2608 0
-2586 -2609 0
-2586 -2610 0
-2586 -2611 0
-2586 -2612 0
-2586 -2613 0
-2586 -2614 0
-2586 -2615 0
-2587 -2588 0
-2587 -2589 0
-2587 -2590 0
-2587 -2591 0
-2587 -2592 0
-2587 -2593 0
-2587 -2594 0
-2587 -2595 0
-2587 -2596 0
-2587 -2597 0
-2587 -2598 0
-2587 -2599 0
-2587 -2600 0
-2587 -2601 0
-2587 -2602 0
-2587 -2603 0
-2587 -2604 0
-2587 -2605 0
-2587 -2606 0
-2587 -2607 0
-2587 -2608 0
-2587 -2609 0
-2587 -2610 0
-2587 -2611 0
-2587 -2612 0
-2587 -2613 0
-2587 -2614 0
-2587 -2615 0
-2588 -2589 0
-2588 -2590 0
-2588 -2591 0
-2588 -2592 0
-2588 -2593 0
-2588 -2594 0
-2588 -2595 0
-2588 -2596 0
-2588 -2597 0
-2588 -2598 0
-2588 -2599 0
-2588 -2600 0
-2588 -2601 0
-2588 -2602 0
-2588 -2603 0
-2588 -2604 0
-2588 -2605 0
-2588 -2606 0
-2588 -2607 0
-2588 -2608 0
-2588 -2609 0
-2588 -2610 0
-2588 -2611 0
-2588 -2612 0
-2588 -2613 0
-2588 -2614 0
-2588 -2615 0
-2589 -2590 0
-2589 -2591 0
-2589 -2592 0
-2589 -2593 0
-2589 -2594 0
-2589 -2595 0
-2589 -2596 0
-2589 -2597 0
-2589 -2598 0
-2589 -2599 0
-2589 -2600 0
-2589 -2601 0
-2589 -2602 0
-2589 -2603 0
-2589 -2604 0
-2589 -2605 0
-2589 -2606 0
-2589 -2607 0
-2589 -2608 0
-2589 -2609 0
-2589 -2610 0
-2589 -2611 0
-2589 -2612 0
-2589 -2613 0
-2589 -2614 0
-2589 -2615 0
-2590 -2591 0
-2590 -2592 0
-2590 -2593 0
-2590 -2594 0
-2590 -2595 0
-2590 -2596 0
-2590 -2597 0
-2590 -2598 0
-2590 -2599 0
-2590 -2600 0
-2590 -2601 0
-2590 -2602 0
-2590 -2603 0
-2590 -2604 0
-2590 -2605 0
-2590 -2606 0
-2590 -2607 0
-2590 -2608 0
-2590 -2609 0
-2590 -2610 0
-2590 -2611 0
-2590 -2612 0
-2590 -2613 0
-2590 -2614 0
-2590 -2615 0
-2591 -2592 0
-2591 -2593 0
-2591 -2594 0
-2591 -2595 0
-2591 -2596 0
-2591 -2597 0
-2591 -2598 0
-2591 -2599 0
-2591 -2600 0
-2591 -2601 0
-2591 -2602 0
-2591 -2603 0
-2591 -2604 0
-2591 -2605 0
-2591 -2606 0
-2591 -2607 0
-2591 -2608 0
-2591 -2609 0
-2591 -2610 0
-2591 -2611 0
-2591 -2612 0
-2591 -2613 0
-2591 -2614 0
-2591 -2615 0
-2592 -2593 0
-2592 -2594 0
-2592 -2595 0
-2592 -2596 0
-2592 -2597 0
-2592 -2598 0
-2592 -2599 0
-2592 -2600 0
-2592 -2601 0
-2592 -2602 0
-2592 -2603 0
-2592 -2604 0
-2592 -2605 0
-2592 -2606 0
-2592 -2607 0
-2592 -2608 0
-2592 -2609 0
-2592 -2610 0
-2592 -2611 0
-2592 -2612 0
-2592 -2613 0
-2592 -2614 0
-2592 -2615 0
-2593 -2594 0
-2593 -2595 0
-2593 -2596 0
-2593 -2597 0
-2593 -2598 0
-2593 -2599 0
-2593 -2600 0
-2593 -2601 0
-2593 -2602 0
-2593 -2603 0
-2593 -2604 0
-2593 -2605 0
-2593 -2606 0
-2593 -2607 0
-2593 -2608 0
-2593 -2609 0
-2593 -2610 0
-2593 -2611 0
-2593 -2612 0
-2593 -2613 0
-2593 -2614 0
-2593 -2615 0
-2594 -2595 0
-2594 -2596 0
-2594 -2597 0
-2594 -2598 0
-2594 -2599 0
-2594 -2600 0
-2594 -2601 0
-2594 -2602 0
-2594 -2603 0
-2594 -2604 0
-2594 -2605 0
-2594 -2606 0
-2594 -2607 0
-2594 -2608 0
-2594 -2609 0
-2594 -2610 0
-2594 -2611 0
-2594 -2612 0
-2594 -2613 0
-2594 -2614 0
-2594 -2615 0
-2595 -2596 0
-2595 -2597 0
-2595 -2598 0
-2595 -2599 0
-2595 -2600 0
-2595 -2601 0
-2595 -2602 0
-2595 -2603 0
-2595 -2604 0
-2595 -2605 0
-2595 -2606 0
-2595 -2607 0
-2595 -2608 0
-2595 -2609 0
-2595 -2610 0
-2595 -2611 0
-2595 -2612 0
-2595 -2613 0
-2595 -2614 0
-2595 -2615 0
-2596 -2597 0
-2596 -2598 0
-2596 -2599 0
-2596 -2600 0
-2596 -2601 0
-2596 -2602 0
-2596 -2603 0
-2596 -2604 0
-2596 -2605 0
-2596 -2606 0
-2596 -2607 0
-2596 -2608 0
-2596 -2609 0
-2596 -2610 0
-2596 -2611 0
-2596 -2612 0
-2596 -2613 0
-2596 -2614 0
-2596 -2615 0
-2597 -2598 0
-2597 -2599 0
-2597 -2600 0
-2597 -2601 0
-2597 -2602 0
-2597 -2603 0
-2597 -2604 0
-2597 -2605 0
-2597 -2606 0
-2597 -2607 0
-2597 -2608 0
-2597 -2609 0
-2597 -2610 0
-2597 -2611 0
-2597 -2612 0
-2597 -2613 0
-2597 -2614 0
-2597 -2615 0
-2598 -2599 0
-2598 -2600 0
-2598 -2601 0
-2598 -2602 0
-2598 -2603 0
-2598 -2604 0
-2598 -2605 0
-2598 -2606 0
-2598 -2607 0
-2598 -2608 0
-2598 -2609 0
-2598 -2610 0
-2598 -2611 0
-2598 -2612 0
-2598 -2613 0
-2598 -2614 0
-2598 -2615 0
-2599 -2600 0
-2599 -2601 0
-2599 -2602 0
-2599 -2603 0
-2599 -2604 0
-2599 -2605 0
-2599 -2606 0
-2599 -2607 0
-2599 -2608 0
-2599 -2609 0
-2599 -2610 0
-2599 -2611 0
-2599 -2612 0
-2599 -2613 0
-2599 -2614 0
-2599 -2615 0
-2600 -2601 0
-2600 -2602 0
-2600 -2603 0
-2600 -2604 0
-2600 -2605 0
-2600 -2606 0
-2600 -2607 0
-2600 -2608 0
-2600 -2609 0
-2600 -2610 0
-2600 -2611 0
-2600 -2612 0
-2600 -2613 0
-2600 -2614 0
-2600 -2615 0
-2601 -2602 0
-2601 -2603 0
-2601 -2604 0
-2601 -2605 0
-2601 -2606 0
-2601 -2607 0
-2601 -2608 0
-2601 -2609 0
-2601 -2610 0
-2601 -2611 0
-2601 -2612 0
-2601 -2613 0
-2601 -2614 0
-2601 -2615 0
-2602 -2603 0
-2602 -2604 0
-2602 -2605 0
-2602 -2606 0
-2602 -2607 0
-2602 -2608 0
-2602 -2609 0
-2602 -2610 0
-2602 -2611 0
-2602 -2612 0
-2602 -2613 0
-2602 -2614 0
-2602 -2615 0
-2603 -2604 0
-2603 -2605 0
-2603 -2606 0
-2603 -2607 0
-2603 -2608 0
-2603 -2609 0
-2603 -2610 0
-2603 -2611 0
-2603 -2612 0
-2603 -2613 0
-2603 -2614 0
-2603 -2615 0
-2604 -2605 0
-2604 -2606 0
-2604 -2607 0
-2604 -2608 0
-2604 -2609 0
-2604 -2610 0
-2604 -2611 0
-2604 -2612 0
-2604 -2613 0
-2604 -2614 0
-2604 -2615 0
-2605 -2606 0
-2605 -2607 0
-2605 -2608 0
-2605 -2609 0
-2605 -2610 0
-2605 -2611 0
-2605 -2612 0
-2605 -2613 0
-2605 -2614 0
-2605 -2615 0
-2606 -2607 0
-2606 -2608 0
-2606 -2609 0
-2606 -2610 0
-2606 -2611 0
-2606 -2612 0
-2606 -2613 0
-2606 -2614 0
-2606 -2615 0
-2607 -2608 0
-2607 -2609 0
-2607 -2610 0
-2607 -2611 0
-2607 -2612 0
-2607 -2613 0
-2607 -2614 0
-2607 -2615 0
-2608 -2609 0
-2608 -2610 0
-2608 -2611 0
-2608 -2612 0
-2608 -2613 0
-2608 -2614 0
-2608 -2615 0
-2609 -2610 0
-2609 -2611 0
-2609 -2612 0
-2609 -2613 0
-2609 -2614 0
-2609 -2615 0
-2610 -2611 0
-2610 -2612 0
-2610 -2613 0
-2610 -2614 0
-2610 -2615 0
-2611 -2612 0
-2611 -2613 0
-2611 -2614 0
-2611 -2615 0
-2612 -2613 0
-2612 -2614 0
-2612 -2615 0
-2613 -2614 0
-2613 -2615 0
-2614 -2615 0
-2477 87 2547 0
-2477 -87 2546 0
-2478 87 2548 0
-2478 -87 2547 0
-2479 87 2549 0
-2479 -87 2548 0
-2480 87 2550 0
-2480 -87 2549 0
-2481 87 2551 0
-2481 -87 2550 0
-2482 87 2552 0
-2482 -87 2551 0
-2483 87 2553 0
-2483 -87 2552 0
-2484 87 2554 0
-2484 -87 2553 0
-2485 87 2555 0
-2485 -87 2554 0
-2486 87 2556 0
-2486 -87 2555 0
-2487 87 2557 0
-2487 -87 2556 0
-2488 87 2558 0
-2488 -87 2557 0
-2489 87 2559 0
-2489 -87 2558 0
-2490 87 2560 0
-2490 -87 2559 0
-2491 87 2561 0
-2491 -87 2560 0
-2492 87 2562 0
-2492 -87 2561 0
-2493 87 2563 0
-2493 -87 2562 0
-2494 87 2564 0
-2494 -87 2563 0
-2495 87 2565 0
-2495 -87 2564 0
-2496 87 2566 0
-2496 -87 2565 0
-2497 87 2567 0
-2497 -87 2566 0
-2498 87 2568 0
-2498 -87 2567 0
-2499 87 2569 0
-2499 -87 2568 0
-2500 87 2570 0
-2500 -87 2569 0
-2501 87 2571 0
-2501 -87 2570 0
-2502 87 2572 0
-2502 -87 2571 0
-2503 87 2573 0
-2503 -87 2572 0
-2504 87 2574 0
-2504 -87 2573 0
-2505 87 2575 0
-2505 -87 2574 0
-2506 87 2576 0
-2506 -87 2575 0
-2507 87 2577 0
-2507 -87 2576 0
-2508 87 2578 0
-2508 -87 2577 0
-2509 87 2579 0
-2509 -87 2578 0
-2510 87 2580 0
-2510 -87 2579 0
-2511 87 2581 0
-2511 -87 2580 0
-2512 87 2582 0
-2512 -87 2581 0
-2513 87 2583 0
-2513 -87 2582 0
-2514 87 2584 0
-2514 -87 2583 0
-2515 87 2585 0
-2515 -87 2584 0
-2516 87 2586 0
-2516 -87 2585 0
-2517 87 2587 0
-2517 -87 2586 0
-2518 87 2588 0
-2518 -87 2587 0
-2519 87 2589 0
-2519 -87 2588 0
-2520 87 2590 0
-2520 -87 2589 0
-2521 87 2591 0
-2521 -87 2590 0
-2522 87 2592 0
-2522 -87 2591 0
-2523 87 2593 0
-2523 -87 2592 0
-2524 87 2594 0
-2524 -87 2593 0
-2525 87 2595 0
-2525 -87 2594 0
-2526 87 2596 0
-2526 -87 2595 0
-2527 87 2597 0
-2527 -87 2596 0
-2528 87 2598 0
-2528 -87 2597 0
-2529 87 2599 0
-2529 -87 2598 0
-2530 87 2600 0
-2530 -87 2599 0
-2531 87 2601 0
-2531 -87 2600 0
-2532 87 2602 0
-2532 -87 2601 0
-2533 87 2603 0
-2533 -87 2602 0
-2534 87 2604 0
-2534 -87 2603 0
-2535 87 2605 0
-2535 -87 2604 0
-2536 87 2606 0
-2536 -87 2605 0
-2537 87 2607 0
-2537 -87 2606 0
-2538 87 2608 0
-2538 -87 2607 0
-2539 87 2609 0
-2539 -87 2608 0
-2540 87 2610 0
-2540 -87 2609 0
-2541 87 2611 0
-2541 -87 2610 0
-2542 87 2612 0
-2542 -87 2611 0
-2543 87 2613 0
-2543 -87 2612 0
-2544 87 2614 0
-2544 -87 2613 0
-2545 87 2615 0
-2545 -87 2614 0
2616 2617 2618 2619 2620 2621 2622 2623 2624 2625 2626 2627 2628 2629 2630 2631 2632 2633 2634 2635 2636 2637 2638 2639 2640 2641 2642 2643 2644 2645 2646 2647 2648 2649 2650 2651 2652 2653 2654 2655 2656 2657 2658 2659 2660 2661 2662 2663 2664 2665 2666 2667 2668 2669 2670 2671 2672 2673 2674 2675 2676 2677 2678 2679 2680 2681 2682 2683 2684 2685 2686 0
-2616 -2617 0
-2616 -2618 0
-2616 -2619 0
-2616 -2620 0
-2616 -2621 0
-2616 -2622 0
-2616 -2623 0
-2616 -2624 0
-2616 -2625 0
-2616 -2626 0
-2616 -2627 0
-2616 -2628 0
-2616 -2629 0
-2616 -2630 0
-2616 -2631 0
-2616 -2632 0
-2616 -2633 0
-2616 -2634 0
-2616 -2635 0
-2616 -2636 0
-2616 -2637 0
-2616 -2638 0
-2616 -2639 0
-2616 -2640 0
-2616 -2641 0
-2616 -2642 0
-2616 -2643 0
-2616 -2644 0
-2616 -2645 0
-2616 -2646 0
-2616 -2647 0
-2616 -2648 0
-2616 -2649 0
-2616 -2650 0
-2616 -2651 0
-2616 -2652 0
-2616 -2653 0
-2616 -2654 0
-2616 -2655 0
-2616 -2656 0
-2616 -2657 0
-2616 -2658 0
-2616 -2659 0
-2616 -2660 0
-2616 -2661 0
-2616 -2662 0
-2616 -2663 0
-2616 -2664 0
-2616 -2665 0
-2616 -2666 0
-2616 -2667 0
-2616 -2668 0
-2616 -2669 0
-2616 -2670 0
-2616 -2671 0
-2616 -2672 0
-2616 -2673 0
-2616 -2674 0
-2616 -2675 0
-2616 -2676 0
-2616 -2677 0
-2616 -2678 0
-2616 -2679 0
-2616 -2680 0
-2616 -2681 0
-2616 -2682 0
-2616 -2683 0
-2616 -2684 0
-2616 -2685 0
-2616 -2686 0
-2617 -2618 0
-2617 -2619 0
-2617 -2620 0
-2617 -2621 0
-2617 -2622 0
-2617 -2623 0
-2617 -2624 0
-2617 -2625 0
-2617 -2626 0
-2617 -2627 0
-2617 -2628 0
-2617 -2629 0
-2617 -2630 0
-2617 -2631 0
-2617 -2632 0
-2617 -2633 0
-2617 -2634 0
-2617 -2635 0
-2617 -2636 0
-2617 -2637 0
-2617 -2638 0
-2617 -2639 0
-2617 -2640 0
-2617 -2641 0
-2617 -2642 0
-2617 -2643 0
-2617 -2644 0
-2617 -2645 0
-2617 -2646 0
-2617 -2647 0
-2617 -2648 0
-2617 -2649 0
-2617 -2650 0
-2617 -2651 0
-2617 -2652 0
-2617 -2653 0
-2617 -2654 0
-2617 -2655 0
-2617 -2656 0
-2617 -2657 0
-2617 -2658 0
-2617 -2659 0
-2617 -2660 0
-2617 -2661 0
-2617 -2662 0
-2617 -2663 0
-2617 -2664 0
-2617 -2665 0
-2617 -2666 0
-2617 -2667 0
-2617 -2668 0
-2617 -2669 0
-2617 -2670 0
-2617 -2671 0
-2617 -2672 0
-2617 -2673 0
-2617 -2674 0
-2617 -2675 0
-2617 -2676 0
-2617 -2677 0
-2617 -2678 0
-2617 -2679 0
-2617 -2680 0
-2617 -2681 0
-2617 -2682 0
-2617 -2683 0
-2617 -2684 0
-2617 -2685 0
-2617 -2686 0
-2618 -2619 0
-2618 -2620 0
-2618 -2621 0
-2618 -2622 0
-2618 -2623 0
-2618 -2624 0
-2618 -2625 0
-2618 -2626 0
-2618 -2627 0
-2618 -2628 0
-2618 -2629 0
-2618 -2630 0
-2618 -2631 0
-2618 -2632 0
-2618 -2633 0
-2618 -2634 0
-2618 -2635 0
-2618 -2636 0
-2618 -2637 0
-2618 -2638 0
-2618 -2639 0
-2618 -2640 0
-2618 -2641 0
-2618 -2642 0
-2618 -2643 0
-2618 -2644 0
-2618 -2645 0
-2618 -2646 0
-2618 -2647 0
-2618 -2648 0
-2618 -2649 0
-2618 -2650 0
-2618 -2651 0
-2618 -2652 0
-2618 -2653 0
-2618 -2654 0
-2618 -2655 0
-2618 -2656 0
-2618 -2657 0
-2618 -2658 0
-2618 -2659 0
-2618 -2660 0
-2618 -2661 0
-2618 -2662 0
-2618 -2663 0
-2618 -2664 0
-2618 -2665 0
-2618 -2666 0
-2618 -2667 0
-2618 -2668 0
-2618 -2669 0
-2618 -2670 0
-2618 -2671 0
-2618 -2672 0
-2618 -2673 0
-2618 -2674 0
-2618 -2675 0
-2618 -2676 0
-2618 -2677 0
-2618 -2678 0
-2618 -2679 0
-2618 -2680 0
-2618 -2681 0
-2618 -2682 0
-2618 -2683 0
-2618 -2684 0
-2618 -2685 0
-2618 -2686 0
-2619 -2620 0
-2619 -2621 0
-2619 -2622 0
-2619 -2623 0
-2619 -2624 0
-2619 -2625 0
-2619 -2626 0
-2619 -2627 0
-2619 -2628 0
-2619 -2629 0
-2619 -2630 0
-2619 -2631 0
-2619 -2632 0
-2619 -2633 0
-2619 -2634 0
-2619 -2635 0
-2619 -2636 0
-2619 -2637 0
-2619 -2638 0
-2619 -2639 0
-2619 -2640 0
-2619 -2641 0
-2619 -2642 0
-2619 -2643 0
-2619 -2644 0
-2619 -2645 0
-2619 -2646 0
-2619 -2647 0
-2619 -2648 0
-2619 -2649 0
-2619 -2650 0
-2619 -2651 0
-2619 -2652 0
-2619 -2653 0
-2619 -2654 0
-2619 -2655 0
-2619 -2656 0
-2619 -2657 0
-2619 -2658 0
-2619 -2659 0
-2619 -2660 0
-2619 -2661 0
-2619 -2662 0
-2619 -2663 0
-2619 -2664 0
-2619 -2665 0
-2619 -2666 0
-2619 -2667 0
-2619 -2668 0
-2619 -2669 0
-2619 -2670 0
-2619 -2671 0
-2619 -2672 0
-2619 -2673 0
-2619 -2674 0
-2619 -2675 0
-2619 -2676 0
-2619 -2677 0
-2619 -2678 0
-2619 -2679 0
-2619 -2680 0
-2619 -2681 0
-2619 -2682 0
-2619 -2683 0
-2619 -2684 0
-2619 -2685 0
-2619 -2686 0
-2620 -2621 0
-2620 -2622 0
-2620 -2623 0
-2620 -2624 0
-2620 -2625 0
-2620 -2626 0
-2620 -2627 0
-2620 -2628 0
-2620 -2629 0
-2620 -2630 0
-2620 -2631 0
-2620 -2632 0
-2620 -2633 0
-2620 -2634 0
-2620 -2635 0
-2620 -2636 0
-2620 -2637 0
-2620 -2638 0
-2620 -2639 0
-2620 -2640 0
-2620 -2641 0
-2620 -2642 0
-2620 -2643 0
-2620 -2644 0
-2620 -2645 0
-2620 -2646 0
-2620 -2647 0
-2620 -2648 0
-2620 -2649 0
-2620 -2650 0
-2620 -2651 0
-2620 -2652 0
-2620 -2653 0
-2620 -2654 0
-2620 -2655 0
-2620 -2656 0
-2620 -2657 0
-2620 -2658 0
-2620 -2659 0
-2620 -2660 0
-2620 -2661 0
-2620 -2662 0
-2620 -2663 0
-2620 -2664 0
-2620 -2665 0
-2620 -2666 0
-2620 -2667 0
-2620 -2668 0
-2620 -2669 0
-2620 -2670 0
-2620 -2671 0
-2620 -2672 0
-2620 -2673 0
-2620 -2674 0
-2620 -2675 0
-2620 -2676 0
-2620 -2677 0
-2620 -2678 0
-2620 -2679 0
-2620 -2680 0
-2620 -2681 0
-2620 -2682 0
-2620 -2683 0
-2620 -2684 0
-2620 -2685 0
-2620 -2686 0
-2621 -2622 0
-2621 -2623 0
-2621 -2624 0
-2621 -2625 0
-2621 -2626 0
-2621 -2627 0
-2621 -2628 0
-2621 -2629 0
-2621 -2630 0
-2621 -2631 0
-2621 -2632 0
-2621 -2633 0
-2621 -2634 0
-2621 -2635 0
-2621 -2636 0
-2621 -2637 0
-2621 -2638 0
-2621 -2639 0
-2621 -2640 0
-2621 -2641 0
-2621 -2642 0
-2621 -2643 0
-2621 -2644 0
-2621 -2645 0
-2621 -2646 0
-2621 -2647 0
-2621 -2648 0
-2621 -2649 0
-2621 -2650 0
-2621 -2651 0
-2621 -2652 0
-2621 -2653 0
-2621 -2654 0
-2621 -2655 0
-2621 -2656 0
-2621 -2657 0
-2621 -2658 0
-2621 -2659 0
-2621 -2660 0
-2621 -2661 0
-2621 -2662 0
-2621 -2663 0
-2621 -2664 0
-2621 -2665 0
-2621 -2666 0
-2621 -2667 0
-2621 -2668 0
-2621 -2669 0
-2621 -2670 0
-2621 -2671 0
-2621 -2672 0
-2621 -2673 0
-2621 -2674 0
-2621 -2675 0
-2621 -2676 0
-2621 -2677 0
-2621 -2678 0
-2621 -2679 0
-2621 -2680 0
-2621 -2681 0
-2621 -2682 0
-2621 -2683 0
-2621 -2684 0
-2621 -2685 0
-2621 -2686 0
-2622 -2623 0
-2622 -2624 0
-2622 -2625 0
-2622 -2626 0
-2622 -2627 0
-2622 -2628 0
-2622 -2629 0
-2622 -2630 0
-2622 -2631 0
-2622 -2632 0
-2622 -2633 0
-2622 -2634 0
-2622 -2635 0
-2622 -2636 0
-2622 -2637 0
-2622 -2638 0
-2622 -2639 0
-2622 -2640 0
-2622 -2641 0
-2622 -2642 0
-2622 -2643 0
-2622 -2644 0
-2622 -2645 0
-2622 -2646 0
-2622 -2647 0
-2622 -2648 0
-2622 -2649 0
-2622 -2650 0
-2622 -2651 0
-2622 -2652 0
-2622 -2653 0
-2622 -2654 0
-2622 -2655 0
-2622 -2656 0
-2622 -2657 0
-2622 -2658 0
-2622 -2659 0
-2622 -2660 0
-2622 -2661 0
-2622 -2662 0
-2622 -2663 0
-2622 -2664 0
-2622 -2665 0
-2622 -2666 0
-2622 -2667 0
-2622 -2668 0
-2622 -2669 0
-2622 -2670 0
-2622 -2671 0
-2622 -2672 0
-2622 -2673 0
-2622 -2674 0
-2622 -2675 0
-2622 -2676 0
-2622 -2677 0
-2622 -2678 0
-2622 -2679 0
-2622 -2680 0
-2622 -2681 0
-2622 -2682 0
-2622 -2683 0
-2622 -2684 0
-2622 -2685 0
-2622 -2686 0
-2623 -2624 0
-2623 -2625 0
-2623 -2626 0
-2623 -2627 0
-2623 -2628 0
-2623 -2629 0
-2623 -2630 0
-2623 -2631 0
-2623 -2632 0
-2623 -2633 0
-2623 -2634 0
-2623 -2635 0
-2623 -2636 0
-2623 -2637 0
-2623 -2638 0
-2623 -2639 0
-2623 -2640 0
-2623 -2641 0
-2623 -2642 0
-2623 -2643 0
-2623 -2644 0
-2623 -2645 0
-2623 -2646 0
-2623 -2647 0
-2623 -2648 0
-2623 -2649 0
-2623 -2650 0
-2623 -2651 0
-2623 -2652 0
-2623 -2653 0
-2623 -2654 0
-2623 -2655 0
-2623 -2656 0
-2623 -2657 0
-2623 -2658 0
-2623 -2659 0
-2623 -2660 0
-2623 -2661 0
-2623 -2662 0
-2623 -2663 0
-2623 -2664 0
-2623 -2665 0
-2623 -2666 0
-2623 -2667 0
-2623 -2668 0
-2623 -2669 0
-2623 -2670 0
-2623 -2671 0
-2623 -2672 0
-2623 -2673 0
-2623 -2674 0
-2623 -2675 0
-2623 -2676 0
-2623 -2677 0
-2623 -2678 0
-2623 -2679 0
-2623 -2680 0
-2623 -2681 0
-2623 -2682 0
-2623 -2683 0
-2623 -2684 0
-2623 -2685 0
-2623 -2686 0
-2624 -2625 0
-2624 -2626 0
-2624 -2627 0
-2624 -2628 0
-2624 -2629 0
-2624 -2630 0
-2624 -2631 0
-2624 -2632 0
-2624 -2633 0
-2624 -2634 0
-2624 -2635 0
-2624 -2636 0
-2624 -2637 0
-2624 -2638 0
-2624 -2639 0
-2624 -2640 0
-2624 -2641 0
-2624 -2642 0
-2624 -2643 0
-2624 -2644 0
-2624 -2645 0
-2624 -2646 0
-2624 -2647 0
-2624 -2648 0
-2624 -2649 0
-2624 -2650 0
-2624 -2651 0
-2624 -2652 0
-2624 -2653 0
-2624 -2654 0
-2624 -2655 0
-2624 -2656 0
-2624 -2657 0
-2624 -2658 0
-2624 -2659 0
-2624 -2660 0
-2624 -2661 0
-2624 -2662 0
-2624 -2663 0
-2624 -2664 0
-2624 -2665 0
-2624 -2666 0
-2624 -2667 0
-2624 -2668 0
-2624 -2669 0
-2624 -2670 0
-2624 -2671 0
-2624 -2672 0
-2624 -2673 0
-2624 -2674 0
-2624 -2675 0
-2624 -2676 0
-2624 -2677 0
-2624 -2678 0
-2624 -2679 0
-2624 -2680 0
-2624 -2681 0
-2624 -2682 0
-2624 -2683 0
-2624 -2684 0
-2624 -2685 0
-2624 -2686 0
-2625 -2626 0
-2625 -2627 0
-2625 -2628 0
-2625 -2629 0
-2625 -2630 0
-2625 -2631 0
-2625 -2632 0
-2625 -2633 0
-2625 -2634 0
-2625 -2635 0
-2625 -2636 0
-2625 -2637 0
-2625 -2638 0
-2625 -2639 0
-2625 -2640 0
-2625 -2641 0
-2625 -2642 0
-2625 -2643 0
-2625 -2644 0
-2625 -2645 0
-2625 -2646 0
-2625 -2647 0
-2625 -2648 0
-2625 -2649 0
-2625 -2650 0
-2625 -2651 0
-2625 -2652 0
-2625 -2653 0
-2625 -2654 0
-2625 -2655 0
-2625 -2656 0
-2625 -2657 0
-2625 -2658 0
-2625 -2659 0
-2625 -2660 0
-2625 -2661 0
-2625 -2662 0
-2625 -2663 0
-2625 -2664 0
-2625 -2665 0
-2625 -2666 0
-2625 -2667 0
-2625 -2668 0
-2625 -2669 0
-2625 -2670 0
-2625 -2671 0
-2625 -2672 0
-2625 -2673 0
-2625 -2674 0
-2625 -2675 0
-2625 -2676 0
-2625 -2677 0
-2625 -2678 0
-2625 -2679 0
-2625 -2680 0
-2625 -2681 0
-2625 -2682 0
-2625 -2683 0
-2625 -2684 0
-2625 -2685 0
-2625 -2686 0
-2626 -2627 0
-2626 -2628 0
-2626 -2629 0
-2626 -2630 0
-2626 -2631 0
-2626 -2632 0
-2626 -2633 0
-2626 -2634 0
-2626 -2635 0
-2626 -2636 0
-2626 -2637 0
-2626 -2638 0
-2626 -2639 0
-2626 -2640 0
-2626 -2641 0
-2626 -2642 0
-2626 -2643 0
-2626 -2644 0
-2626 -2645 0
-2626 -2646 0
-2626 -2647 0
-2626 -2648 0
-2626 -2649 0
-2626 -2650 0
-2626 -2651 0
-2626 -2652 0
-2626 -2653 0
-2626 -2654 0
-2626 -2655 0
-2626 -2656 0
-2626 -2657 0
-2626 -2658 0
-2626 -2659 0
-2626 -2660 0
-2626 -2661 0
-2626 -2662 0
-2626 -2663 0
-2626 -2664 0
-2626 -2665 0
-2626 -2666 0
-2626 -2667 0
-2626 -2668 0
-2626 -2669 0
-2626 -2670 0
-2626 -2671 0
-2626 -2672 0
-2626 -2673 0
-2626 -2674 0
-2626 -2675 0
-2626 -2676 0
-2626 -2677 0
-2626 -2678 0
-2626 -2679 0
-2626 -2680 0
-2626 -2681 0
-2626 -2682 0
-2626 -2683 0
-2626 -2684 0
-2626 -2685 0
-2626 -2686 0
-2627 -2628 0
-2627 -2629 0
-2627 -2630 0
-2627 -2631 0
-2627 -2632 0
-2627 -2633 0
-2627 -2634 0
-2627 -2635 0
-2627 -2636 0
-2627 -2637 0
-2627 -2638 0
-2627 -2639 0
-2627 -2640 0
-2627 -2641 0
-2627 -2642 0
-2627 -2643 0
-2627 -2644 0
-2627 -2645 0
-2627 -2646 0
-2627 -2647 0
-2627 -2648 0
-2627 -2649 0
-2627 -2650 0
-2627 -2651 0
-2627 -2652 0
-2627 -2653 0
-2627 -2654 0
-2627 -2655 0
-2627 -2656 0
-2627 -2657 0
-2627 -2658 0
-2627 -2659 0
-2627 -2660 0
-2627 -2661 0
-2627 -2662 0
-2627 -2663 0
-2627 -2664 0
-2627 -2665 0
-2627 -2666 0
-2627 -2667 0
-2627 -2668 0
-2627 -2669 0
-2627 -2670 0
-2627 -2671 0
-2627 -2672 0
-2627 -2673 0
-2627 -2674 0
-2627 -2675 0
-2627 -2676 0
-2627 -2677 0
-2627 -2678 0
-2627 -2679 0
-2627 -2680 0
-2627 -2681 0
-2627 -2682 0
-2627 -2683 0
-2627 -2684 0
-2627 -2685 0
-2627 -2686 0
-2628 -2629 0
-2628 -2630 0
-2628 -2631 0
-2628 -2632 0
-2628 -2633 0
-2628 -2634 0
-2628 -2635 0
-2628 -2636 0
-2628 -2637 0
-2628 -2638 0
-2628 -2639 0
-2628 -2640 0
-2628 -2641 0
-2628 -2642 0
-2628 -2643 0
-2628 -2644 0
-2628 -2645 0
-2628 -2646 0
-2628 -2647 0
-2628 -2648 0
-2628 -2649 0
-2628 -2650 0
-2628 -2651 0
-2628 -2652 0
-2628 -2653 0
-2628 -2654 0
-2628 -2655 0
-2628 -2656 0
-2628 -2657 0
-2628 -2658 0
-2628 -2659 0
-2628 -2660 0
-2628 -2661 0
-2628 -2662 0
-2628 -2663 0
-2628 -2664 0
-2628 -2665 0
-2628 -2666 0
-2628 -2667 0
-2628 -2668 0
-2628 -2669 0
-2628 -2670 0
-2628 -2671 0
-2628 -2672 0
-2628 -2673 0
-2628 -2674 0
-2628 -2675 0
-2628 -2676 0
-2628 -2677 0
-2628 -2678 0
-2628 -2679 0
-2628 -2680 0
-2628 -2681 0
-2628 -2682 0
-2628 -2683 0
-2628 -2684 0
-2628 -2685 0
-2628 -2686 0
-2629 -2630 0
-2629 -2631 0
-2629 -2632 0
-2629 -2633 0
-2629 -2634 0
-2629 -2635 0
-2629 -2636 0
-2629 -2637 0
-2629 -2638 0
-2629 -2639 0
-2629 -2640 0
-2629 -2641 0
-2629 -2642 0
-2629 -2643 0
-2629 -2644 0
-2629 -2645 0
-2629 -2646 0
-2629 -2647 0
-2629 -2648 0
-2629 -2649 0
-2629 -2650 0
-2629 -2651 0
-2629 -2652 0
-2629 -2653 0
-2629 -2654 0
-2629 -2655 0
-2629 -2656 0
-2629 -2657 0
-2629 -2658 0
-2629 -2659 0
-2629 -2660 0
-2629 -2661 0
-2629 -2662 0
-2629 -2663 0
-2629 -2664 0
-2629 -2665 0
-2629 -2666 0
-2629 -2667 0
-2629 -2668 0
-2629 -2669 0
-2629 -2670 0
-2629 -2671 0
-2629 -2672 0
-2629 -2673 0
-2629 -2674 0
-2629 -2675 0
-2629 -2676 0
-2629 -2677 0
-2629 -2678 0
-2629 -2679 0
-2629 -2680 0
-2629 -2681 0
-2629 -2682 0
-2629 -2683 0
-2629 -2684 0
-2629 -2685 0
-2629 -2686 0
-2630 -2631 0
-2630 -2632 0
-2630 -2633 0
-2630 -2634 0
-2630 -2635 0
-2630 -2636 0
-2630 -2637 0
-2630 -2638 0
-2630 -2639 0
-2630 -2640 0
-2630 -2641 0
-2630 -2642 0
-2630 -2643 0
-2630 -2644 0
-2630 -2645 0
-2630 -2646 0
-2630 -2647 0
-2630 -2648 0
-2630 -2649 0
-2630 -2650 0
-2630 -2651 0
-2630 -2652 0
-2630 -2653 0
-2630 -2654 0
-2630 -2655 0
-2630 -2656 0
-2630 -2657 0
-2630 -2658 0
-2630 -2659 0
-2630 -2660 0
-2630 -2661 0
-2630 -2662 0
-2630 -2663 0
-2630 -2664 0
-2630 -2665 0
-2630 -2666 0
-2630 -2667 0
-2630 -2668 0
-2630 -2669 0
-2630 -2670 0
-2630 -2671 0
-2630 -2672 0
-2630 -2673 0
-2630 -2674 0
-2630 -2675 0
-2630 -2676 0
-2630 -2677 0
-2630 -2678 0
-2630 -2679 0
-2630 -2680 0
-2630 -2681 0
-2630 -2682 0
-2630 -2683 0
-2630 -2684 0
-2630 -2685 0
-2630 -2686 0
-2631 -2632 0
-2631 -2633 0
-2631 -2634 0
-2631 -2635 0
-2631 -2636 0
-2631 -2637 0
-2631 -2638 0
-2631 -2639 0
-2631 -2640 0
-2631 -2641 0
-2631 -2642 0
-2631 -2643 0
-2631 -2644 0
-2631 -2645 0
-2631 -2646 0
-2631 -2647 0
-2631 -2648 0
-2631 -2649 0
-2631 -2650 0
-2631 -2651 0
-2631 -2652 0
-2631 -2653 0
-2631 -2654 0
-2631 -2655 0
-2631 -2656 0
-2631 -2657 0
-2631 -2658 0
-2631 -2659 0
-2631 -2660 0
-2631 -2661 0
-2631 -2662 0
-2631 -2663 0
-2631 -2664 0
-2631 -2665 0
-2631 -2666 0
-2631 -2667 0
-2631 -2668 0
-2631 -2669 0
-2631 -2670 0
-2631 -2671 0
-2631 -2672 0
-2631 -2673 0
-2631 -2674 0
-2631 -2675 0
-2631 -2676 0
-2631 -2677 0
-2631 -2678 0
-2631 -2679 0
-2631 -2680 0
-2631 -2681 0
-2631 -2682 0
-2631 -2683 0
-2631 -2684 0
-2631 -2685 0
-2631 -2686 0
-2632 -2633 0
-2632 -2634 0
-2632 -2635 0
-2632 -2636 0
-2632 -2637 0
-2632 -2638 0
-2632 -2639 0
-2632 -2640 0
-2632 -2641 0
-2632 -2642 0
-2632 -2643 0
-2632 -2644 0
-2632 -2645 0
-2632 -2646 0
-2632 -2647 0
-2632 -2648 0
-2632 -2649 0
-2632 -2650 0
-2632 -2651 0
-2632 -2652 0
-2632 -2653 0
-2632 -2654 0
-2632 -2655 0
-2632 -2656 0
-2632 -2657 0
-2632 -2658 0
-2632 -2659 0
-2632 -2660 0
-2632 -2661 0
-2632 -2662 0
-2632 -2663 0
-2632 -2664 0
-2632 -2665 0
-2632 -2666 0
-2632 -2667 0
-2632 -2668 0
-2632 -2669 0
-2632 -2670 0
-2632 -2671 0
-2632 -2672 0
-2632 -2673 0
-2632 -2674 0
-2632 -2675 0
-2632 -2676 0
-2632 -2677 0
-2632 -2678 0
-2632 -2679 0
-2632 -2680 0
-2632 -2681 0
-2632 -2682 0
-2632 -2683 0
-2632 -2684 0
-2632 -2685 0
-2632 -2686 0
-2633 -2634 0
-2633 -2635 0
-2633 -2636 0
-2633 -2637 0
-2633 -2638 0
-2633 -2639 0
-2633 -2640 0
-2633 -2641 0
-2633 -2642 0
-2633 -2643 0
-2633 -2644 0
-2633 -2645 0
-2633 -2646 0
-2633 -2647 0
-2633 -2648 0
-2633 -2649 0
-2633 -2650 0
-2633 -2651 0
-2633 -2652 0
-2633 -2653 0
-2633 -2654 0
-2633 -2655 0
-2633 -2656 0
-2633 -2657 0
-2633 -2658 0
-2633 -2659 0
-2633 -2660 0
-2633 -2661 0
-2633 -2662 0
-2633 -2663 0
-2633 -2664 0
-2633 -2665 0
-2633 -2666 0
-2633 -2667 0
-2633 -2668 0
-2633 -2669 0
-2633 -2670 0
-2633 -2671 0
-2633 -2672 0
-2633 -2673 0
-2633 -2674 0
-2633 -2675 0
-2633 -2676 0
-2633 -2677 0
-2633 -2678 0
-2633 -2679 0
-2633 -2680 0
-2633 -2681 0
-2633 -2682 0
-2633 -2683 0
-2633 -2684 0
-2633 -2685 0
-2633 -2686 0
-2634 -2635 0
-2634 -2636 0
-2634 -2637 0
-2634 -2638 0
-2634 -2639 0
-2634 -2640 0
-2634 -2641 0
-2634 -2642 0
-2634 -2643 0
-2634 -2644 0
-2634 -2645 0
-2634 -2646 0
-2634 -2647 0
-2634 -2648 0
-2634 -2649 0
-2634 -2650 0
-2634 -2651 0
-2634 -2652 0
-2634 -2653 0
-2634 -2654 0
-2634 -2655 0
-2634 -2656 0
-2634 -2657 0
-2634 -2658 0
-2634 -2659 0
-2634 -2660 0
-2634 -2661 0
-2634 -2662 0
-2634 -2663 0
-2634 -2664 0
-2634 -2665 0
-2634 -2666 0
-2634 -2667 0
-2634 -2668 0
-2634 -2669 0
-2634 -2670 0
-2634 -2671 0
-2634 -2672 0
-2634 -2673 0
-2634 -2674 0
-2634 -2675 0
-2634 -2676 0
-2634 -2677 0
-2634 -2678 0
-2634 -2679 0
-2634 -2680 0
-2634 -2681 0
-2634 -2682 0
-2634 -2683 0
-2634 -2684 0
-2634 -2685 0
-2634 -2686 0
-2635 -2636 0
-2635 -2637 0
-2635 -2638 0
-2635 -2639 0
-2635 -2640 0
-2635 -2641 0
-2635 -2642 0
-2635 -2643 0
-2635 -2644 0
-2635 -2645 0
-2635 -2646 0
-2635 -2647 0
-2635 -2648 0
-2635 -2649 0
-2635 -2650 0
-2635 -2651 0
-2635 -2652 0
-2635 -2653 0
-2635 -2654 0
-2635 -2655 0
-2635 -2656 0
-2635 -2657 0
-2635 -2658 0
-2635 -2659 0
-2635 -2660 0
-2635 -2661 0
-2635 -2662 0
-2635 -2663 0
-2635 -2664 0
-2635 -2665 0
-2635 -2666 0
-2635 -2667 0
-2635 -2668 0
-2635 -2669 0
-2635 -2670 0
-2635 -2671 0
-2635 -2672 0
-2635 -2673 0
-2635 -2674 0
-2635 -2675 0
-2635 -2676 0
-2635 -2677 0
-2635 -2678 0
-2635 -2679 0
-2635 -2680 0
-2635 -2681 0
-2635 -2682 0
-2635 -2683 0
-2635 -2684 0
-2635 -2685 0
-2635 -2686 0
-2636 -2637 0
-2636 -2638 0
-2636 -2639 0
-2636 -2640 0
-2636 -2641 0
-2636 -2642 0
-2636 -2643 0
-2636 -2644 0
-2636 -2645 0
-2636 -2646 0
-2636 -2647 0
-2636 -2648 0
-2636 -2649 0
-2636 -2650 0
-2636 -2651 0
-2636 -2652 0
-2636 -2653 0
-2636 -2654 0
-2636 -2655 0
-2636 -2656 0
-2636 -2657 0
-2636 -2658 0
-2636 -2659 0
-2636 -2660 0
-2636 -2661 0
-2636 -2662 0
-2636 -2663 0
-2636 -2664 0
-2636 -2665 0
-2636 -2666 0
-2636 -2667 0
-2636 -2668 0
-2636 -2669 0
-2636 -2670 0
-2636 -2671 0
-2636 -2672 0
-2636 -2673 0
-2636 -2674 0
-2636 -2675 0
-2636 -2676 0
-2636 -2677 0
-2636 -2678 0
-2636 -2679 0
-2636 -2680 0
-2636 -2681 0
-2636 -2682 0
-2636 -2683 0
-2636 -2684 0
-2636 -2685 0
-2636 -2686 0
-2637 -2638 0
-2637 -2639 0
-2637 -2640 0
-2637 -2641 0
-2637 -2642 0
-2637 -2643 0
-2637 -2644 0
-2637 -2645 0
-2637 -2646 0
-2637 -2647 0
-2637 -2648 0
-2637 -2649 0
-2637 -2650 0
-2637 -2651 0
-2637 -2652 0
-2637 -2653 0
-2637 -2654 0
-2637 -2655 0
-2637 -2656 0
-2637 -2657 0
-2637 -2658 0
-2637 -2659 0
-2637 -2660 0
-2637 -2661 0
-2637 -2662 0
-2637 -2663 0
-2637 -2664 0
-2637 -2665 0
-2637 -2666 0
-2637 -2667 0
-2637 -2668 0
-2637 -2669 0
-2637 -2670 0
-2637 -2671 0
-2637 -2672 0
-2637 -2673 0
-2637 -2674 0
-2637 -2675 0
-2637 -2676 0
-2637 -2677 0
-2637 -2678 0
-2637 -2679 0
-2637 -2680 0
-2637 -2681 0
-2637 -2682 0
-2637 -2683 0
-2637 -2684 0
-2637 -2685 0
-2637 -2686 0
-2638 -2639 0
-2638 -2640 0
-2638 -2641 0
-2638 -2642 0
-2638 -2643 0
-2638 -2644 0
-2638 -2645 0
-2638 -2646 0
-2638 -2647 0
-2638 -2648 0
-2638 -2649 0
-2638 -2650 0
-2638 -2651 0
-2638 -2652 0
-2638 -2653 0
-2638 -2654 0
-2638 -2655 0
-2638 -2656 0
-2638 -2657 0
-2638 -2658 0
-2638 -2659 0
-2638 -2660 0
-2638 -2661 0
-2638 -2662 0
-2638 -2663 0
-2638 -2664 0
-2638 -2665 0
-2638 -2666 0
-2638 -2667 0
-2638 -2668 0
-2638 -2669 0
-2638 -2670 0
-2638 -2671 0
-2638 -2672 0
-2638 -2673 0
-2638 -2674 0
-2638 -2675 0
-2638 -2676 0
-2638 -2677 0
-2638 -2678 0
-2638 -2679 0
-2638 -2680 0
-2638 -2681 0
-2638 -2682 0
-2638 -2683 0
-2638 -2684 0
-2638 -2685 0
-2638 -2686 0
-2639 -2640 0
-2639 -2641 0
-2639 -2642 0
-2639 -2643 0
-2639 -2644 0
-2639 -2645 0
-2639 -2646 0
-2639 -2647 0
-2639 -2648 0
-2639 -2649 0
-2639 -2650 0
-2639 -2651 0
-2639 -2652 0
-2639 -2653 0
-2639 -2654 0
-2639 -2655 0
-2639 -2656 0
-2639 -2657 0
-2639 -2658 0
-2639 -2659 0
-2639 -2660 0
-2639 -2661 0
-2639 -2662 0
-2639 -2663 0
-2639 -2664 0
-2639 -2665 0
-2639 -2666 0
-2639 -2667 0
-2639 -2668 0
-2639 -2669 0
-2639 -2670 0
-2639 -2671 0
-2639 -2672 0
-2639 -2673 0
-2639 -2674 0
-2639 -2675 0
-2639 -2676 0
-2639 -2677 0
-2639 -2678 0
-2639 -2679 0
-2639 -2680 0
-2639 -2681 0
-2639 -2682 0
-2639 -2683 0
-2639 -2684 0
-2639 -2685 0
-2639 -2686 0
-2640 -2641 0
-2640 -2642 0
-2640 -2643 0
-2640 -2644 0
-2640 -2645 0
-2640 -2646 0
-2640 -2647 0
-2640 -2648 0
-2640 -2649 0
-2640 -2650 0
-2640 -2651 0
-2640 -2652 0
-2640 -2653 0
-2640 -2654 0
-2640 -2655 0
-2640 -2656 0
-2640 -2657 0
-2640 -2658 0
-2640 -2659 0
-2640 -2660 0
-2640 -2661 0
-2640 -2662 0
-2640 -2663 0
-2640 -2664 0
-2640 -2665 0
-2640 -2666 0
-2640 -2667 0
-2640 -2668 0
-2640 -2669 0
-2640 -2670 0
-2640 -2671 0
-2640 -2672 0
-2640 -2673 0
-2640 -2674 0
-2640 -2675 0
-2640 -2676 0
-2640 -2677 0
-2640 -2678 0
-2640 -2679 0
-2640 -2680 0
-2640 -2681 0
-2640 -2682 0
-2640 -2683 0
-2640 -2684 0
-2640 -2685 0
-2640 -2686 0
-2641 -2642 0
-2641 -2643 0
-2641 -2644 0
-2641 -2645 0
-2641 -2646 0
-2641 -2647 0
-2641 -2648 0
-2641 -2649 0
-2641 -2650 0
-2641 -2651 0
-2641 -2652 0
-2641 -2653 0
-2641 -2654 0
-2641 -2655 0
-2641 -2656 0
-2641 -2657 0
-2641 -2658 0
-2641 -2659 0
-2641 -2660 0
-2641 -2661 0
-2641 -2662 0
-2641 -2663 0
-2641 -2664 0
-2641 -2665 0
-2641 -2666 0
-2641 -2667 0
-2641 -2668 0
-2641 -2669 0
-2641 -2670 0
-2641 -2671 0
-2641 -2672 0
-2641 -2673 0
-2641 -2674 0
-2641 -2675 0
-2641 -2676 0
-2641 -2677 0
-2641 -2678 0
-2641 -2679 0
-2641 -2680 0
-2641 -2681 0
-2641 -2682 0
-2641 -2683 0
-2641 -2684 0
-2641 -2685 0
-2641 -2686 0
-2642 -2643 0
-2642 -2644 0
-2642 -2645 0
-2642 -2646 0
-2642 -2647 0
-2642 -2648 0
-2642 -2649 0
-2642 -2650 0
-2642 -2651 0
-2642 -2652 0
-2642 -2653 0
-2642 -2654 0
-2642 -2655 0
-2642 -2656 0
-2642 -2657 0
-2642 -2658 0
-2642 -2659 0
-2642 -2660 0
-2642 -2661 0
-2642 -2662 0
-2642 -2663 0
-2642 -2664 0
-2642 -2665 0
-2642 -2666 0
-2642 -2667 0
-2642 -2668 0
-2642 -2669 0
-2642 -2670 0
-2642 -2671 0
-2642 -2672 0
-2642 -2673 0
-2642 -2674 0
-2642 -2675 0
-2642 -2676 0
-2642 -2677 0
-2642 -2678 0
-2642 -2679 0
-2642 -2680 0
-2642 -2681 0
-2642 -2682 0
-2642 -2683 0
-2642 -2684 0
-2642 -2685 0
-2642 -2686 0
-2643 -2644 0
-2643 -2645 0
-2643 -2646 0
-2643 -2647 0
-2643 -2648 0
-2643 -2649 0
-2643 -2650 0
-2643 -2651 0
-2643 -2652 0
-2643 -2653 0
-2643 -2654 0
-2643 -2655 0
-2643 -2656 0
-2643 -2657 0
-2643 -2658 0
-2643 -2659 0
-2643 -2660 0
-2643 -2661 0
-2643 -2662 0
-2643 -2663 0
-2643 -2664 0
-2643 -2665 0
-2643 -2666 0
-2643 -2667 0
-2643 -2668 0
-2643 -2669 0
-2643 -2670 0
-2643 -2671 0
-2643 -2672 0
-2643 -2673 0
-2643 -2674 0
-2643 -2675 0
-2643 -2676 0
-2643 -2677 0
-2643 -2678 0
-2643 -2679 0
-2643 -2680 0
-2643 -2681 0
-2643 -2682 0
-2643 -2683 0
-2643 -2684 0
-2643 -2685 0
-2643 -2686 0
-2644 -2645 0
-2644 -2646 0
-2644 -2647 0
-2644 -2648 0
-2644 -2649 0
-2644 -2650 0
-2644 -2651 0
-2644 -2652 0
-2644 -2653 0
-2644 -2654 0
-2644 -2655 0
-2644 -2656 0
-2644 -2657 0
-2644 -2658 0
-2644 -2659 0
-2644 -2660 0
-2644 -2661 0
-2644 -2662 0
-2644 -2663 0
-2644 -2664 0
-2644 -2665 0
-2644 -2666 0
-2644 -2667 0
-2644 -2668 0
-2644 -2669 0
-2644 -2670 0
-2644 -2671 0
-2644 -2672 0
-2644 -2673 0
-2644 -2674 0
-2644 -2675 0
-2644 -2676 0
-2644 -2677 0
-2644 -2678 0
-2644 -2679 0
-2644 -2680 0
-2644 -2681 0
-2644 -2682 0
-2644 -2683 0
-2644 -2684 0
-2644 -2685 0
-2644 -2686 0
-2645 -2646 0
-2645 -2647 0
-2645 -2648 0
-2645 -2649 0
-2645 -2650 0
-2645 -2651 0
-2645 -2652 0
-2645 -2653 0
-2645 -2654 0
-2645 -2655 0
-2645 -2656 0
-2645 -2657 0
-2645 -2658 0
-2645 -2659 0
-2645 -2660 0
-2645 -2661 0
-2645 -2662 0
-2645 -2663 0
-2645 -2664 0
-2645 -2665 0
-2645 -2666 0
-2645 -2667 0
-2645 -2668 0
-2645 -2669 0
-2645 -2670 0
-2645 -2671 0
-2645 -2672 0
-2645 -2673 0
-2645 -2674 0
-2645 -2675 0
-2645 -2676 0
-2645 -2677 0
-2645 -2678 0
-2645 -2679 0
-2645 -2680 0
-2645 -2681 0
-2645 -2682 0
-2645 -2683 0
-2645 -2684 0
-2645 -2685 0
-2645 -2686 0
-2646 -2647 0
-2646 -2648 0
-2646 -2649 0
-2646 -2650 0
-2646 -2651 0
-2646 -2652 0
-2646 -2653 0
-2646 -2654 0
-2646 -2655 0
-2646 -2656 0
-2646 -2657 0
-2646 -2658 0
-2646 -2659 0
-2646 -2660 0
-2646 -2661 0
-2646 -2662 0
-2646 -2663 0
-2646 -2664 0
-2646 -2665 0
-2646 -2666 0
-2646 -2667 0
-2646 -2668 0
-2646 -2669 0
-2646 -2670 0
-2646 -2671 0
-2646 -2672 0
-2646 -2673 0
-2646 -2674 0
-2646 -2675 0
-2646 -2676 0
-2646 -2677 0
-2646 -2678 0
-2646 -2679 0
-2646 -2680 0
-2646 -2681 0
-2646 -2682 0
-2646 -2683 0
-2646 -2684 0
-2646 -2685 0
-2646 -2686 0
-2647 -2648 0
-2647 -2649 0
-2647 -2650 0
-2647 -2651 0
-2647 -2652 0
-2647 -2653 0
-2647 -2654 0
-2647 -2655 0
-2647 -2656 0
-2647 -2657 0
-2647 -2658 0
-2647 -2659 0
-2647 -2660 0
-2647 -2661 0
-2647 -2662 0
-2647 -2663 0
-2647 -2664 0
-2647 -2665 0
-2647 -2666 0
-2647 -2667 0
-2647 -2668 0
-2647 -2669 0
-2647 -2670 0
-2647 -2671 0
-2647 -2672 0
-2647 -2673 0
-2647 -2674 0
-2647 -2675 0
-2647 -2676 0
-2647 -2677 0
-2647 -2678 0
-2647 -2679 0
-2647 -2680 0
-2647 -2681 0
-2647 -2682 0
-2647 -2683 0
-2647 -2684 0
-2647 -2685 0
-2647 -2686 0
-2648 -2649 0
-2648 -2650 0
-2648 -2651 0
-2648 -2652 0
-2648 -2653 0
-2648 -2654 0
-2648 -2655 0
-2648 -2656 0
-2648 -2657 0
-2648 -2658 0
-2648 -2659 0
-2648 -2660 0
-2648 -2661 0
-2648 -2662 0
-2648 -2663 0
-2648 -2664 0
-2648 -2665 0
-2648 -2666 0
-2648 -2667 0
-2648 -2668 0
-2648 -2669 0
-2648 -2670 0
-2648 -2671 0
-2648 -2672 0
-2648 -2673 0
-2648 -2674 0
-2648 -2675 0
-2648 -2676 0
-2648 -2677 0
-2648 -2678 0
-2648 -2679 0
-2648 -2680 0
-2648 -2681 0
-2648 -2682 0
-2648 -2683 0
-2648 -2684 0
-2648 -2685 0
-2648 -2686 0
-2649 -2650 0
-2649 -2651 0
-2649 -2652 0
-2649 -2653 0
-2649 -2654 0
-2649 -2655 0
-2649 -2656 0
-2649 -2657 0
-2649 -2658 0
-2649 -2659 0
-2649 -2660 0
-2649 -2661 0
-2649 -2662 0
-2649 -2663 0
-2649 -2664 0
-2649 -2665 0
-2649 -2666 0
-2649 -2667 0
-2649 -2668 0
-2649 -2669 0
-2649 -2670 0
-2649 -2671 0
-2649 -2672 0
-2649 -2673 0
-2649 -2674 0
-2649 -2675 0
-2649 -2676 0
-2649 -2677 0
-2649 -2678 0
-2649 -2679 0
-2649 -2680 0
-2649 -2681 0
-2649 -2682 0
-2649 -2683 0
-2649 -2684 0
-2649 -2685 0
-2649 -2686 0
-2650 -2651 0
-2650 -2652 0
-2650 -2653 0
-2650 -2654 0
-2650 -2655 0
-2650 -2656 0
-2650 -2657 0
-2650 -2658 0
-2650 -2659 0
-2650 -2660 0
-2650 -2661 0
-2650 -2662 0
-2650 -2663 0
-2650 -2664 0
-2650 -2665 0
-2650 -2666 0
-2650 -2667 0
-2650 -2668 0
-2650 -2669 0
-2650 -2670 0
-2650 -2671 0
-2650 -2672 0
-2650 -2673 0
-2650 -2674 0
-2650 -2675 0
-2650 -2676 0
-2650 -2677 0
-2650 -2678 0
-2650 -2679 0
-2650 -2680 0
-2650 -2681 0
-2650 -2682 0
-2650 -2683 0
-2650 -2684 0
-2650 -2685 0
-2650 -2686 0
-2651 -2652 0
-2651 -2653 0
-2651 -2654 0
-2651 -2655 0
-2651 -2656 0
-2651 -2657 0
-2651 -2658 0
-2651 -2659 0
-2651 -2660 0
-2651 -2661 0
-2651 -2662 0
-2651 -2663 0
-2651 -2664 0
-2651 -2665 0
-2651 -2666 0
-2651 -2667 0
-2651 -2668 0
-2651 -2669 0
-2651 -2670 0
-2651 -2671 0
-2651 -2672 0
-2651 -2673 0
-2651 -2674 0
-2651 -2675 0
-2651 -2676 0
-2651 -2677 0
-2651 -2678 0
-2651 -2679 0
-2651 -2680 0
-2651 -2681 0
-2651 -2682 0
-2651 -2683 0
-2651 -2684 0
-2651 -2685 0
-2651 -2686 0
-2652 -2653 0
-2652 -2654 0
-2652 -2655 0
-2652 -2656 0
-2652 -2657 0
-2652 -2658 0
-2652 -2659 0
-2652 -2660 0
-2652 -2661 0
-2652 -2662 0
-2652 -2663 0
-2652 -2664 0
-2652 -2665 0
-2652 -2666 0
-2652 -2667 0
-2652 -2668 0
-2652 -2669 0
-2652 -2670 0
-2652 -2671 0
-2652 -2672 0
-2652 -2673 0
-2652 -2674 0
-2652 -2675 0
-2652 -2676 0
-2652 -2677 0
-2652 -2678 0
-2652 -2679 0
-2652 -2680 0
-2652 -2681 0
-2652 -2682 0
-2652 -2683 0
-2652 -2684 0
-2652 -2685 0
-2652 -2686 0
-2653 -2654 0
-2653 -2655 0
-2653 -2656 0
-2653 -2657 0
-2653 -2658 0
-2653 -2659 0
-2653 -2660 0
-2653 -2661 0
-2653 -2662 0
-2653 -2663 0
-2653 -2664 0
-2653 -2665 0
-2653 -2666 0
-2653 -2667 0
-2653 -2668 0
-2653 -2669 0
-2653 -2670 0
-2653 -2671 0
-2653 -2672 0
-2653 -2673 0
-2653 -2674 0
-2653 -2675 0
-2653 -2676 0
-2653 -2677 0
-2653 -2678 0
-2653 -2679 0
-2653 -2680 0
-2653 -2681 0
-2653 -2682 0
-2653 -2683 0
-2653 -2684 0
-2653 -2685 0
-2653 -2686 0
-2654 -2655 0
-2654 -2656 0
-2654 -2657 0
-2654 -2658 0
-2654 -2659 0
-2654 -2660 0
-2654 -2661 0
-2654 -2662 0
-2654 -2663 0
-2654 -2664 0
-2654 -2665 0
-2654 -2666 0
-2654 -2667 0
-2654 -2668 0
-2654 -2669 0
-2654 -2670 0
-2654 -2671 0
-2654 -2672 0
-2654 -2673 0
-2654 -2674 0
-2654 -2675 0
-2654 -2676 0
-2654 -2677 0
-2654 -2678 0
-2654 -2679 0
-2654 -2680 0
-2654 -2681 0
-2654 -2682 0
-2654 -2683 0
-2654 -2684 0
-2654 -2685 0
-2654 -2686 0
-2655 -2656 0
-2655 -2657 0
-2655 -2658 0
-2655 -2659 0
-2655 -2660 0
-2655 -2661 0
-2655 -2662 0
-2655 -2663 0
-2655 -2664 0
-2655 -2665 0
-2655 -2666 0
-2655 -2667 0
-2655 -2668 0
-2655 -2669 0
-2655 -2670 0
-2655 -2671 0
-2655 -2672 0
-2655 -2673 0
-2655 -2674 0
-2655 -2675 0
-2655 -2676 0
-2655 -2677 0
-2655 -2678 0
-2655 -2679 0
-2655 -2680 0
-2655 -2681 0
-2655 -2682 0
-2655 -2683 0
-2655 -2684 0
-2655 -2685 0
-2655 -2686 0
-2656 -2657 0
-2656 -2658 0
-2656 -2659 0
-2656 -2660 0
-2656 -2661 0
-2656 -2662 0
-2656 -2663 0
-2656 -2664 0
-2656 -2665 0
-2656 -2666 0
-2656 -2667 0
-2656 -2668 0
-2656 -2669 0
-2656 -2670 0
-2656 -2671 0
-2656 -2672 0
-2656 -2673 0
-2656 -2674 0
-2656 -2675 0
-2656 -2676 0
-2656 -2677 0
-2656 -2678 0
-2656 -2679 0
-2656 -2680 0
-2656 -2681 0
-2656 -2682 0
-2656 -2683 0
-2656 -2684 0
-2656 -2685 0
-2656 -2686 0
-2657 -2658 0
-2657 -2659 0
-2657 -2660 0
-2657 -2661 0
-2657 -2662 0
-2657 -2663 0
-2657 -2664 0
-2657 -2665 0
-2657 -2666 0
-2657 -2667 0
-2657 -2668 0
-2657 -2669 0
-2657 -2670 0
-2657 -2671 0
-2657 -2672 0
-2657 -2673 0
-2657 -2674 0
-2657 -2675 0
-2657 -2676 0
-2657 -2677 0
-2657 -2678 0
-2657 -2679 0
-2657 -2680 0
-2657 -2681 0
-2657 -2682 0
-2657 -2683 0
-2657 -2684 0
-2657 -2685 0
-2657 -2686 0
-2658 -2659 0
-2658 -2660 0
-2658 -2661 0
-2658 -2662 0
-2658 -2663 0
-2658 -2664 0
-2658 -2665 0
-2658 -2666 0
-2658 -2667 0
-2658 -2668 0
-2658 -2669 0
-2658 -2670 0
-2658 -2671 0
-2658 -2672 0
-2658 -2673 0
-2658 -2674 0
-2658 -2675 0
-2658 -2676 0
-2658 -2677 0
-2658 -2678 0
-2658 -2679 0
-2658 -2680 0
-2658 -2681 0
-2658 -2682 0
-2658 -2683 0
-2658 -2684 0
-2658 -2685 0
-2658 -2686 0
-2659 -2660 0
-2659 -2661 0
-2659 -2662 0
-2659 -2663 0
-2659 -2664 0
-2659 -2665 0
-2659 -2666 0
-2659 -2667 0
-2659 -2668 0
-2659 -2669 0
-2659 -2670 0
-2659 -2671 0
-2659 -2672 0
-2659 -2673 0
-2659 -2674 0
-2659 -2675 0
-2659 -2676 0
-2659 -2677 0
-2659 -2678 0
-2659 -2679 0
-2659 -2680 0
-2659 -2681 0
-2659 -2682 0
-2659 -2683 0
-2659 -2684 0
-2659 -2685 0
-2659 -2686 0
-2660 -2661 0
-2660 -2662 0
-2660 -2663 0
-2660 -2664 0
-2660 -2665 0
-2660 -2666 0
-2660 -2667 0
-2660 -2668 0
-2660 -2669 0
-2660 -2670 0
-2660 -2671 0
-2660 -2672 0
-2660 -2673 0
-2660 -2674 0
-2660 -2675 0
-2660 -2676 0
-2660 -2677 0
-2660 -2678 0
-2660 -2679 0
-2660 -2680 0
-2660 -2681 0
-2660 -2682 0
-2660 -2683 0
-2660 -2684 0
-2660 -2685 0
-2660 -2686 0
-2661 -2662 0
-2661 -2663 0
-2661 -2664 0
-2661 -2665 0
-2661 -2666 0
-2661 -2667 0
-2661 -2668 0
-2661 -2669 0
-2661 -2670 0
-2661 -2671 0
-2661 -2672 0
-2661 -2673 0
-2661 -2674 0
-2661 -2675 0
-2661 -2676 0
-2661 -2677 0
-2661 -2678 0
-2661 -2679 0
-2661 -2680 0
-2661 -2681 0
-2661 -2682 0
-2661 -2683 0
-2661 -2684 0
-2661 -2685 0
-2661 -2686 0
-2662 -2663 0
-2662 -2664 0
-2662 -2665 0
-2662 -2666 0
-2662 -2667 0
-2662 -2668 0
-2662 -2669 0
-2662 -2670 0
-2662 -2671 0
-2662 -2672 0
-2662 -2673 0
-2662 -2674 0
-2662 -2675 0
-2662 -2676 0
-2662 -2677 0
-2662 -2678 0
-2662 -2679 0
-2662 -2680 0
-2662 -2681 0
-2662 -2682 0
-2662 -2683 0
-2662 -2684 0
-2662 -2685 0
-2662 -2686 0
-2663 -2664 0
-2663 -2665 0
-2663 -2666 0
-2663 -2667 0
-2663 -2668 0
-2663 -2669 0
-2663 -2670 0
-2663 -2671 0
-2663 -2672 0
-2663 -2673 0
-2663 -2674 0
-2663 -2675 0
-2663 -2676 0
-2663 -2677 0
-2663 -2678 0
-2663 -2679 0
-2663 -2680 0
-2663 -2681 0
-2663 -2682 0
-2663 -2683 0
-2663 -2684 0
-2663 -2685 0
-2663 -2686 0
-2664 -2665 0
-2664 -2666 0
-2664 -2667 0
-2664 -2668 0
-2664 -2669 0
-2664 -2670 0
-2664 -2671 0
-2664 -2672 0
-2664 -2673 0
-2664 -2674 0
-2664 -2675 0
-2664 -2676 0
-2664 -2677 0
-2664 -2678 0
-2664 -2679 0
-2664 -2680 0
-2664 -2681 0
-2664 -2682 0
-2664 -2683 0
-2664 -2684 0
-2664 -2685 0
-2664 -2686 0
-2665 -2666 0
-2665 -2667 0
-2665 -2668 0
-2665 -2669 0
-2665 -2670 0
-2665 -2671 0
-2665 -2672 0
-2665 -2673 0
-2665 -2674 0
-2665 -2675 0
-2665 -2676 0
-2665 -2677 0
-2665 -2678 0
-2665 -2679 0
-2665 -2680 0
-2665 -2681 0
-2665 -2682 0
-2665 -2683 0
-2665 -2684 0
-2665 -2685 0
-2665 -2686 0
-2666 -2667 0
-2666 -2668 0
-2666 -2669 0
-2666 -2670 0
-2666 -2671 0
-2666 -2672 0
-2666 -2673 0
-2666 -2674 0
-2666 -2675 0
-2666 -2676 0
-2666 -2677 0
-2666 -2678 0
-2666 -2679 0
-2666 -2680 0
-2666 -2681 0
-2666 -2682 0
-2666 -2683 0
-2666 -2684 0
-2666 -2685 0
-2666 -2686 0
-2667 -2668 0
-2667 -2669 0
-2667 -2670 0
-2667 -2671 0
-2667 -2672 0
-2667 -2673 0
-2667 -2674 0
-2667 -2675 0
-2667 -2676 0
-2667 -2677 0
-2667 -2678 0
-2667 -2679 0
-2667 -2680 0
-2667 -2681 0
-2667 -2682 0
-2667 -2683 0
-2667 -2684 0
-2667 -2685 0
-2667 -2686 0
-2668 -2669 0
-2668 -2670 0
-2668 -2671 0
-2668 -2672 0
-2668 -2673 0
-2668 -2674 0
-2668 -2675 0
-2668 -2676 0
-2668 -2677 0
-2668 -2678 0
-2668 -2679 0
-2668 -2680 0
-2668 -2681 0
-2668 -2682 0
-2668 -2683 0
-2668 -2684 0
-2668 -2685 0
-2668 -2686 0
-2669 -2670 0
-2669 -2671 0
-2669 -2672 0
-2669 -2673 0
-2669 -2674 0
-2669 -2675 0
-2669 -2676 0
-2669 -2677 0
-2669 -2678 0
-2669 -2679 0
-2669 -2680 0
-2669 -2681 0
-2669 -2682 0
-2669 -2683 0
-2669 -2684 0
-2669 -2685 0
-2669 -2686 0
-2670 -2671 0
-2670 -2672 0
-2670 -2673 0
-2670 -2674 0
-2670 -2675 0
-2670 -2676 0
-2670 -2677 0
-2670 -2678 0
-2670 -2679 0
-2670 -2680 0
-2670 -2681 0
-2670 -2682 0
-2670 -2683 0
-2670 -2684 0
-2670 -2685 0
-2670 -2686 0
-2671 -2672 0
-2671 -2673 0
-2671 -2674 0
-2671 -2675 0
-2671 -2676 0
-2671 -2677 0
-2671 -2678 0
-2671 -2679 0
-2671 -2680 0
-2671 -2681 0
-2671 -2682 0
-2671 -2683 0
-2671 -2684 0
-2671 -2685 0
-2671 -2686 0
-2672 -2673 0
-2672 -2674 0
-2672 -2675 0
-2672 -2676 0
-2672 -2677 0
-2672 -2678 0
-2672 -2679 0
-2672 -2680 0
-2672 -2681 0
-2672 -2682 0
-2672 -2683 0
-2672 -2684 0
-2672 -2685 0
-2672 -2686 0
-2673 -2674 0
-2673 -2675 0
-2673 -2676 0
-2673 -2677 0
-2673 -2678 0
-2673 -2679 0
-2673 -2680 0
-2673 -2681 0
-2673 -2682 0
-2673 -2683 0
-2673 -2684 0
-2673 -2685 0
-2673 -2686 0
-2674 -2675 0
-2674 -2676 0
-2674 -2677 0
-2674 -2678 0
-2674 -2679 0
-2674 -2680 0
-2674 -2681 0
-2674 -2682 0
-2674 -2683 0
-2674 -2684 0
-2674 -2685 0
-2674 -2686 0
-2675 -2676 0
-2675 -2677 0
-2675 -2678 0
-2675 -2679 0
-2675 -2680 0
-2675 -2681 0
-2675 -2682 0
-2675 -2683 0
-2675 -2684 0
-2675 -2685 0
-2675 -2686 0
-2676 -2677 0
-2676 -2678 0
-2676 -2679 0
-2676 -2680 0
-2676 -2681 0
-2676 -2682 0
-2676 -2683 0
-2676 -2684 0
-2676 -2685 0
-2676 -2686 0
-2677 -2678 0
-2677 -2679 0
-2677 -2680 0
-2677 -2681 0
-2677 -2682 0
-2677 -2683 0
-2677 -2684 0
-2677 -2685 0
-2677 -2686 0
-2678 -2679 0
-2678 -2680 0
-2678 -2681 0
-2678 -2682 0
-2678 -2683 0
-2678 -2684 0
-2678 -2685 0
-2678 -2686 0
-2679 -2680 0
-2679 -2681 0
-2679 -2682 0
-2679 -2683 0
-2679 -2684 0
-2679 -2685 0
-2679 -2686 0
-2680 -2681 0
-2680 -2682 0
-2680 -2683 0
-2680 -2684 0
-2680 -2685 0
-2680 -2686 0
-2681 -2682 0
-2681 -2683 0
-2681 -2684 0
-2681 -2685 0
-2681 -2686 0
-2682 -2683 0
-2682 -2684 0
-2682 -2685 0
-2682 -2686 0
-2683 -2684 0
-2683 -2685 0
-2683 -2686 0
-2684 -2685 0
-2684 -2686 0
-2685 -2686 0
-2546 90 2617 0
-2546 -90 2616 0
-2547 90 2618 0
-2547 -90 2617 0
-2548 90 2619 0
-2548 -90 2618 0
-2549 90 2620 0
-2549 -90 2619 0
-2550 90 2621 0
-2550 -90 2620 0
-2551 90 2622 0
-2551 -90 2621 0
-2552 90 2623 0
-2552 -90 2622 0
-2553 90 2624 0
-2553 -90 2623 0
-2554 90 2625 0
-2554 -90 2624 0
-2555 90 2626 0
-2555 -90 2625 0
-2556 90 2627 0
-2556 -90 2626 0
-2557 90 2628 0
-2557 -90 2627 0
-2558 90 2629 0
-2558 -90 2628 0
-2559 90 2630 0
-2559 -90 2629 0
-2560 90 2631 0
-2560 -90 2630 0
-2561 90 2632 0
-2561 -90 2631 0
-2562 90 2633 0
-2562 -90 2632 0
-2563 90 2634 0
-2563 -90 2633 0
-2564 90 2635 0
-2564 -90 2634 0
-2565 90 2636 0
-2565 -90 2635 0
-2566 90 2637 0
-2566 -90 2636 0
-2567 90 2638 0
-2567 -90 2637 0
-2568 90 2639 0
-2568 -90 2638 0
-2569 90 2640 0
-2569 -90 2639 0
-2570 90 2641 0
-2570 -90 2640 0
-2571 90 2642 0
-2571 -90 2641 0
-2572 90 2643 0
-2572 -90 2642 0
-2573 90 2644 0
-2573 -90 2643 0
-2574 90 2645 0
-2574 -90 2644 0
-2575 90 2646 0
-2575 -90 2645 0
-2576 90 2647 0
-2576 -90 2646 0
-2577 90 2648 0
-2577 -90 2647 0
-2578 90 2649 0
-2578 -90 2648 0
-2579 90 2650 0
-2579 -90 2649 0
-2580 90 2651 0
-2580 -90 2650 0
-2581 90 2652 0
-2581 -90 2651 0
-2582 90 2653 0
-2582 -90 2652 0
-2583 90 2654 0
-2583 -90 2653 0
-2584 90 2655 0
-2584 -90 2654 0
-2585 90 2656 0
-2585 -90 2655 0
-2586 90 2657 0
-2586 -90 2656 0
-2587 90 2658 0
-2587 -90 2657 0
-2588 90 2659 0
-2588 -90 2658 0
-2589 90 2660 0
-2589 -90 2659 0
-2590 90 2661 0
-2590 -90 2660 0
-2591 90 2662 0
-2591 -90 2661 0
-2592 90 2663 0
-2592 -90 2662 0
-2593 90 2664 0
-2593 -90 2663 0
-2594 90 2665 0
-2594 -90 2664 0
-2595 90 2666 0
-2595 -90 2665 0
-2596 90 2667 0
-2596 -90 2666 0
-2597 90 2668 0
-2597 -90 2667 0
-2598 90 2669 0
-2598 -90 2668 0
-2599 90 2670 0
-2599 -90 2669 0
-2600 90 2671 0
-2600 -90 2670 0
-2601 90 2672 0
-2601 -90 2671 0
-2602 90 2673 0
-2602 -90 2672 0
-2603 90 2674 0
-2603 -90 2673 0
-2604 90 2675 0
-2604 -90 2674 0
-2605 90 2676 0
-2605 -90 2675 0
-2606 90 2677 0
-2606 -90 2676 0
-2607 90 2678 0
-2607 -90 2677 0
-2608 90 2679 0
-2608 -90 2678 0
-2609 90 2680 0
-2609 -90 2679 0
-2610 90 2681 0
-2610 -90 2680 0
-2611 90 2682 0
-2611 -90 2681 0
-2612 90 2683 0
-2612 -90 2682 0
-2613 90 2684 0
-2613 -90 2683 0
-2614 90 2685 0
-2614 -90 2684 0
-2615 90 2686 0
-2615 -90 2685 0
-2647 0
-2648 0
-2649 0
-2650 0
-2651 0
-2652 0
-2653 0
-2654 0
-2655 0
-2656 0
-2657 0
-2658 0
-2659 0
-2660 0
-2661 0
-2662 0
-2663 0
-2664 0
-2665 0
-2666 0
-2667 0
-2668 0
-2669 0
-2670 0
-2671 0
-2672 0
-2673 0
-2674 0
-2675 0
-2676 0
-2677 0
-2678 0
-2679 0
-2680 0
-2681 0
-2682 0
-2683 0
-2684 0
-2685 0
-2686 0
