c connected exact (3,2,2) occurrence 2-switch
p cnf 30 40
9 -11 16 0
-4 -10 -13 0
1 -9 -14 0
2 6 14 0
-5 -6 15 0
2 -3 15 0
3 5 -9 0
-6 -12 -15 0
-1 5 -11 0
4 -7 -15 0
-2 8 -12 0
3 9 11 0
-4 -8 10 0
7 -8 13 0
4 7 -13 0
-2 -7 14 0
-3 11 -14 0
8 10 12 0
-10 12 13 0
-1 -5 6 0
1 24 -26 0
-19 -25 -28 0
16 -24 -29 0
17 21 29 0
-20 -21 30 0
17 -18 30 0
18 20 -24 0
-21 -27 -30 0
-16 20 -26 0
19 -22 -30 0
-17 23 -27 0
18 24 26 0
-19 -23 25 0
22 -23 28 0
19 22 -28 0
-17 -22 29 0
-18 26 -29 0
23 25 27 0
-25 27 28 0
-16 -20 21 0
