c controlled bilateral-deficiency benchmark; family=exact-322; target=3
p cnf 45 60
1 9 -11 0
-4 -10 -13 0
1 -9 -14 0
2 6 14 0
-5 -6 15 0
2 -3 15 0
3 5 -9 0
-6 -12 -15 0
-1 5 -11 0
4 -7 -15 0
-2 8 -12 0
3 9 11 0
-4 -8 10 0
7 -8 13 0
4 7 -13 0
-2 -7 14 0
-3 11 -14 0
8 10 12 0
-10 12 13 0
-1 -5 6 0
16 24 -26 0
-19 -25 -28 0
16 -24 -29 0
17 21 29 0
-20 -21 30 0
17 -18 30 0
18 20 -24 0
-21 -27 -30 0
-16 20 -26 0
19 -22 -30 0
-17 23 -27 0
18 24 26 0
-19 -23 25 0
22 -23 28 0
19 22 -28 0
-17 -22 29 0
-18 26 -29 0
23 25 27 0
-25 27 28 0
-16 -20 21 0
31 39 -41 0
-34 -40 -43 0
31 -39 -44 0
32 36 44 0
-35 -36 45 0
32 -33 45 0
33 35 -39 0
-36 -42 -45 0
-31 35 -41 0
34 -37 -45 0
-32 38 -42 0
33 39 41 0
-34 -38 40 0
37 -38 43 0
34 37 -43 0
-32 -37 44 0
-33 41 -44 0
38 40 42 0
-40 42 43 0
-31 -35 36 0
