0 1
0 98
0 109
1 90
1 92
2 105
2 3
2 100
3 93
3 95
4 106
4 5
4 95
5 96
5 101
6 91
6 102
6 7
7 104
7 99
8 9
8 109
8 94
9 98
9 96
10 97
10 11
10 94
11 109
11 93
12 105
12 99
12 13
13 104
13 103
14 103
14 102
14 15
15 107
15 100
16 96
16 17
16 92
17 90
17 101
18 91
18 19
18 108
19 107
19 102
20 90
20 21
20 98
21 106
21 101
22 97
22 100
22 23
23 107
23 108
24 104
24 25
24 91
25 108
25 103
26 106
26 27
26 92
27 105
27 93
28 97
28 99
28 29
29 94
29 95
30 129
30 118
30 31
31 112
31 110
32 120
32 33
32 125
33 113
33 115
34 115
34 35
34 126
35 121
35 116
36 122
36 37
36 111
37 124
37 119
38 129
38 114
38 39
39 118
39 116
40 41
40 114
40 117
41 113
41 129
42 43
42 125
42 119
43 123
43 124
44 122
44 123
44 45
45 120
45 127
46 112
46 116
46 47
47 121
47 110
48 128
48 49
48 111
49 122
49 127
50 118
50 51
50 110
51 121
51 126
52 120
52 117
52 53
53 128
53 127
54 124
54 111
54 55
55 128
55 123
56 112
56 57
56 126
57 113
57 125
58 59
58 117
58 119
59 115
59 114
60 138
60 61
60 149
61 132
61 130
62 145
62 140
62 63
63 133
63 135
64 65
64 146
64 135
65 136
65 141
66 67
66 131
66 142
67 144
67 139
68 69
68 134
68 149
69 136
69 138
70 137
70 134
70 71
71 133
71 149
72 73
72 145
72 139
73 144
73 143
74 75
74 142
74 143
75 147
75 140
76 136
76 132
76 77
77 130
77 141
78 131
78 148
78 79
79 142
79 147
80 81
80 130
80 138
81 146
81 141
82 137
82 83
82 140
83 147
83 148
84 144
84 131
84 85
85 148
85 143
86 146
86 132
86 87
87 145
87 133
88 89
88 137
88 139
89 134
89 135
