0 1
0 50
0 61
1 42
1 44
2 57
2 3
2 52
3 45
3 47
4 58
4 5
4 47
5 48
5 53
6 43
6 54
6 7
7 56
7 51
8 9
8 61
8 46
9 48
9 50
10 49
10 11
10 46
11 61
11 45
12 57
12 51
12 13
13 56
13 55
14 55
14 54
14 15
15 59
15 52
16 48
16 17
16 44
17 42
17 53
18 43
18 19
18 60
19 59
19 54
20 42
20 50
20 21
21 58
21 53
22 49
22 52
22 23
23 59
23 60
24 56
24 25
24 43
25 60
25 55
26 58
26 27
26 44
27 57
27 45
28 49
28 51
28 29
29 46
29 47
30 65
30 63
30 31
31 67
31 69
32 64
32 33
32 67
33 66
33 68
34 67
34 35
34 68
35 64
35 63
36 65
36 68
36 37
37 64
37 62
38 65
38 66
38 39
39 62
39 69
40 41
40 62
40 63
41 66
41 69
