c beta(F) <= 0 encoding by deterministic prefix balance
c input sat2024_enforcer_composition.cnf
c input_sha256 299d316563525fc8c7a8006b41c27806d89d749e42ae54a34c716f04c9667369
p cnf 731 9256
1 2 3 0
-1 -2 0
-1 -3 0
-2 -3 0
4 5 6 0
-4 -5 0
-4 -6 0
-5 -6 0
7 8 9 0
-7 -8 0
-7 -9 0
-8 -9 0
10 11 12 0
-10 -11 0
-10 -12 0
-11 -12 0
13 14 15 0
-13 -14 0
-13 -15 0
-14 -15 0
16 17 18 0
-16 -17 0
-16 -18 0
-17 -18 0
19 20 21 0
-19 -20 0
-19 -21 0
-20 -21 0
22 23 24 0
-22 -23 0
-22 -24 0
-23 -24 0
25 26 27 0
-25 -26 0
-25 -27 0
-26 -27 0
28 29 30 0
-28 -29 0
-28 -30 0
-29 -30 0
31 32 33 0
-31 -32 0
-31 -33 0
-32 -33 0
34 35 36 0
-34 -35 0
-34 -36 0
-35 -36 0
37 38 39 0
-37 -38 0
-37 -39 0
-38 -39 0
40 41 42 0
-40 -41 0
-40 -42 0
-41 -42 0
43 44 45 0
-43 -44 0
-43 -45 0
-44 -45 0
-46 -1 0
-46 -10 0
-46 -22 0
46 1 10 22 0
-47 -4 0
-47 -16 0
-47 -22 0
47 4 16 22 0
-48 -1 0
-48 -16 0
-48 -23 0
48 1 16 23 0
-49 -10 0
-49 -19 0
-49 -23 0
49 10 19 23 0
-50 -7 0
-50 -13 0
-50 -20 0
50 7 13 20 0
-51 -4 0
-51 -14 0
-51 -17 0
51 4 14 17 0
-52 -7 0
-52 -11 0
-52 -19 0
52 7 11 19 0
-53 -8 0
-53 -13 0
-53 -17 0
53 8 13 17 0
-54 -5 0
-54 -14 0
-54 -20 0
54 5 14 20 0
-55 -5 0
-55 -8 0
-55 -11 0
55 5 8 11 0
-56 -2 0
-56 -31 0
-56 -43 0
56 2 31 43 0
-57 -25 0
-57 -37 0
-57 -43 0
57 25 37 43 0
-58 -2 0
-58 -37 0
-58 -44 0
58 2 37 44 0
-59 -31 0
-59 -40 0
-59 -44 0
59 31 40 44 0
-60 -28 0
-60 -34 0
-60 -41 0
60 28 34 41 0
-61 -25 0
-61 -35 0
-61 -38 0
61 25 35 38 0
-62 -28 0
-62 -32 0
-62 -40 0
62 28 32 40 0
-63 -29 0
-63 -34 0
-63 -38 0
63 29 34 38 0
-64 -26 0
-64 -35 0
-64 -41 0
64 26 35 41 0
-65 -26 0
-65 -29 0
-65 -32 0
65 26 29 32 0
-3 56 58 0
-3 46 48 0
-6 54 55 0
-6 47 51 0
-9 53 55 0
-9 50 52 0
-12 52 55 0
-12 46 49 0
-15 51 54 0
-15 50 53 0
-18 51 53 0
-18 47 48 0
-21 50 54 0
-21 49 52 0
-24 48 49 0
-24 46 47 0
-27 64 65 0
-27 57 61 0
-30 63 65 0
-30 60 62 0
-33 62 65 0
-33 56 59 0
-36 61 64 0
-36 60 63 0
-39 61 63 0
-39 57 58 0
-42 60 64 0
-42 59 62 0
-45 58 59 0
-45 56 57 0
66 0
67 68 0
-67 -68 0
-66 46 67 0
-66 -46 68 0
69 70 71 0
-69 -70 0
-69 -71 0
-70 -71 0
-67 47 69 0
-67 -47 70 0
-68 47 70 0
-68 -47 71 0
72 73 74 75 0
-72 -73 0
-72 -74 0
-72 -75 0
-73 -74 0
-73 -75 0
-74 -75 0
-69 48 72 0
-69 -48 73 0
-70 48 73 0
-70 -48 74 0
-71 48 74 0
-71 -48 75 0
76 77 78 79 80 0
-76 -77 0
-76 -78 0
-76 -79 0
-76 -80 0
-77 -78 0
-77 -79 0
-77 -80 0
-78 -79 0
-78 -80 0
-79 -80 0
-72 49 76 0
-72 -49 77 0
-73 49 77 0
-73 -49 78 0
-74 49 78 0
-74 -49 79 0
-75 49 79 0
-75 -49 80 0
81 82 83 84 85 86 0
-81 -82 0
-81 -83 0
-81 -84 0
-81 -85 0
-81 -86 0
-82 -83 0
-82 -84 0
-82 -85 0
-82 -86 0
-83 -84 0
-83 -85 0
-83 -86 0
-84 -85 0
-84 -86 0
-85 -86 0
-76 50 81 0
-76 -50 82 0
-77 50 82 0
-77 -50 83 0
-78 50 83 0
-78 -50 84 0
-79 50 84 0
-79 -50 85 0
-80 50 85 0
-80 -50 86 0
87 88 89 90 91 92 93 0
-87 -88 0
-87 -89 0
-87 -90 0
-87 -91 0
-87 -92 0
-87 -93 0
-88 -89 0
-88 -90 0
-88 -91 0
-88 -92 0
-88 -93 0
-89 -90 0
-89 -91 0
-89 -92 0
-89 -93 0
-90 -91 0
-90 -92 0
-90 -93 0
-91 -92 0
-91 -93 0
-92 -93 0
-81 51 87 0
-81 -51 88 0
-82 51 88 0
-82 -51 89 0
-83 51 89 0
-83 -51 90 0
-84 51 90 0
-84 -51 91 0
-85 51 91 0
-85 -51 92 0
-86 51 92 0
-86 -51 93 0
94 95 96 97 98 99 100 101 0
-94 -95 0
-94 -96 0
-94 -97 0
-94 -98 0
-94 -99 0
-94 -100 0
-94 -101 0
-95 -96 0
-95 -97 0
-95 -98 0
-95 -99 0
-95 -100 0
-95 -101 0
-96 -97 0
-96 -98 0
-96 -99 0
-96 -100 0
-96 -101 0
-97 -98 0
-97 -99 0
-97 -100 0
-97 -101 0
-98 -99 0
-98 -100 0
-98 -101 0
-99 -100 0
-99 -101 0
-100 -101 0
-87 52 94 0
-87 -52 95 0
-88 52 95 0
-88 -52 96 0
-89 52 96 0
-89 -52 97 0
-90 52 97 0
-90 -52 98 0
-91 52 98 0
-91 -52 99 0
-92 52 99 0
-92 -52 100 0
-93 52 100 0
-93 -52 101 0
102 103 104 105 106 107 108 109 110 0
-102 -103 0
-102 -104 0
-102 -105 0
-102 -106 0
-102 -107 0
-102 -108 0
-102 -109 0
-102 -110 0
-103 -104 0
-103 -105 0
-103 -106 0
-103 -107 0
-103 -108 0
-103 -109 0
-103 -110 0
-104 -105 0
-104 -106 0
-104 -107 0
-104 -108 0
-104 -109 0
-104 -110 0
-105 -106 0
-105 -107 0
-105 -108 0
-105 -109 0
-105 -110 0
-106 -107 0
-106 -108 0
-106 -109 0
-106 -110 0
-107 -108 0
-107 -109 0
-107 -110 0
-108 -109 0
-108 -110 0
-109 -110 0
-94 53 102 0
-94 -53 103 0
-95 53 103 0
-95 -53 104 0
-96 53 104 0
-96 -53 105 0
-97 53 105 0
-97 -53 106 0
-98 53 106 0
-98 -53 107 0
-99 53 107 0
-99 -53 108 0
-100 53 108 0
-100 -53 109 0
-101 53 109 0
-101 -53 110 0
111 112 113 114 115 116 117 118 119 120 0
-111 -112 0
-111 -113 0
-111 -114 0
-111 -115 0
-111 -116 0
-111 -117 0
-111 -118 0
-111 -119 0
-111 -120 0
-112 -113 0
-112 -114 0
-112 -115 0
-112 -116 0
-112 -117 0
-112 -118 0
-112 -119 0
-112 -120 0
-113 -114 0
-113 -115 0
-113 -116 0
-113 -117 0
-113 -118 0
-113 -119 0
-113 -120 0
-114 -115 0
-114 -116 0
-114 -117 0
-114 -118 0
-114 -119 0
-114 -120 0
-115 -116 0
-115 -117 0
-115 -118 0
-115 -119 0
-115 -120 0
-116 -117 0
-116 -118 0
-116 -119 0
-116 -120 0
-117 -118 0
-117 -119 0
-117 -120 0
-118 -119 0
-118 -120 0
-119 -120 0
-102 54 111 0
-102 -54 112 0
-103 54 112 0
-103 -54 113 0
-104 54 113 0
-104 -54 114 0
-105 54 114 0
-105 -54 115 0
-106 54 115 0
-106 -54 116 0
-107 54 116 0
-107 -54 117 0
-108 54 117 0
-108 -54 118 0
-109 54 118 0
-109 -54 119 0
-110 54 119 0
-110 -54 120 0
121 122 123 124 125 126 127 128 129 130 131 0
-121 -122 0
-121 -123 0
-121 -124 0
-121 -125 0
-121 -126 0
-121 -127 0
-121 -128 0
-121 -129 0
-121 -130 0
-121 -131 0
-122 -123 0
-122 -124 0
-122 -125 0
-122 -126 0
-122 -127 0
-122 -128 0
-122 -129 0
-122 -130 0
-122 -131 0
-123 -124 0
-123 -125 0
-123 -126 0
-123 -127 0
-123 -128 0
-123 -129 0
-123 -130 0
-123 -131 0
-124 -125 0
-124 -126 0
-124 -127 0
-124 -128 0
-124 -129 0
-124 -130 0
-124 -131 0
-125 -126 0
-125 -127 0
-125 -128 0
-125 -129 0
-125 -130 0
-125 -131 0
-126 -127 0
-126 -128 0
-126 -129 0
-126 -130 0
-126 -131 0
-127 -128 0
-127 -129 0
-127 -130 0
-127 -131 0
-128 -129 0
-128 -130 0
-128 -131 0
-129 -130 0
-129 -131 0
-130 -131 0
-111 55 121 0
-111 -55 122 0
-112 55 122 0
-112 -55 123 0
-113 55 123 0
-113 -55 124 0
-114 55 124 0
-114 -55 125 0
-115 55 125 0
-115 -55 126 0
-116 55 126 0
-116 -55 127 0
-117 55 127 0
-117 -55 128 0
-118 55 128 0
-118 -55 129 0
-119 55 129 0
-119 -55 130 0
-120 55 130 0
-120 -55 131 0
132 133 134 135 136 137 138 139 140 141 142 143 0
-132 -133 0
-132 -134 0
-132 -135 0
-132 -136 0
-132 -137 0
-132 -138 0
-132 -139 0
-132 -140 0
-132 -141 0
-132 -142 0
-132 -143 0
-133 -134 0
-133 -135 0
-133 -136 0
-133 -137 0
-133 -138 0
-133 -139 0
-133 -140 0
-133 -141 0
-133 -142 0
-133 -143 0
-134 -135 0
-134 -136 0
-134 -137 0
-134 -138 0
-134 -139 0
-134 -140 0
-134 -141 0
-134 -142 0
-134 -143 0
-135 -136 0
-135 -137 0
-135 -138 0
-135 -139 0
-135 -140 0
-135 -141 0
-135 -142 0
-135 -143 0
-136 -137 0
-136 -138 0
-136 -139 0
-136 -140 0
-136 -141 0
-136 -142 0
-136 -143 0
-137 -138 0
-137 -139 0
-137 -140 0
-137 -141 0
-137 -142 0
-137 -143 0
-138 -139 0
-138 -140 0
-138 -141 0
-138 -142 0
-138 -143 0
-139 -140 0
-139 -141 0
-139 -142 0
-139 -143 0
-140 -141 0
-140 -142 0
-140 -143 0
-141 -142 0
-141 -143 0
-142 -143 0
-121 56 132 0
-121 -56 133 0
-122 56 133 0
-122 -56 134 0
-123 56 134 0
-123 -56 135 0
-124 56 135 0
-124 -56 136 0
-125 56 136 0
-125 -56 137 0
-126 56 137 0
-126 -56 138 0
-127 56 138 0
-127 -56 139 0
-128 56 139 0
-128 -56 140 0
-129 56 140 0
-129 -56 141 0
-130 56 141 0
-130 -56 142 0
-131 56 142 0
-131 -56 143 0
144 145 146 147 148 149 150 151 152 153 154 155 156 0
-144 -145 0
-144 -146 0
-144 -147 0
-144 -148 0
-144 -149 0
-144 -150 0
-144 -151 0
-144 -152 0
-144 -153 0
-144 -154 0
-144 -155 0
-144 -156 0
-145 -146 0
-145 -147 0
-145 -148 0
-145 -149 0
-145 -150 0
-145 -151 0
-145 -152 0
-145 -153 0
-145 -154 0
-145 -155 0
-145 -156 0
-146 -147 0
-146 -148 0
-146 -149 0
-146 -150 0
-146 -151 0
-146 -152 0
-146 -153 0
-146 -154 0
-146 -155 0
-146 -156 0
-147 -148 0
-147 -149 0
-147 -150 0
-147 -151 0
-147 -152 0
-147 -153 0
-147 -154 0
-147 -155 0
-147 -156 0
-148 -149 0
-148 -150 0
-148 -151 0
-148 -152 0
-148 -153 0
-148 -154 0
-148 -155 0
-148 -156 0
-149 -150 0
-149 -151 0
-149 -152 0
-149 -153 0
-149 -154 0
-149 -155 0
-149 -156 0
-150 -151 0
-150 -152 0
-150 -153 0
-150 -154 0
-150 -155 0
-150 -156 0
-151 -152 0
-151 -153 0
-151 -154 0
-151 -155 0
-151 -156 0
-152 -153 0
-152 -154 0
-152 -155 0
-152 -156 0
-153 -154 0
-153 -155 0
-153 -156 0
-154 -155 0
-154 -156 0
-155 -156 0
-132 57 144 0
-132 -57 145 0
-133 57 145 0
-133 -57 146 0
-134 57 146 0
-134 -57 147 0
-135 57 147 0
-135 -57 148 0
-136 57 148 0
-136 -57 149 0
-137 57 149 0
-137 -57 150 0
-138 57 150 0
-138 -57 151 0
-139 57 151 0
-139 -57 152 0
-140 57 152 0
-140 -57 153 0
-141 57 153 0
-141 -57 154 0
-142 57 154 0
-142 -57 155 0
-143 57 155 0
-143 -57 156 0
157 158 159 160 161 162 163 164 165 166 167 168 169 170 0
-157 -158 0
-157 -159 0
-157 -160 0
-157 -161 0
-157 -162 0
-157 -163 0
-157 -164 0
-157 -165 0
-157 -166 0
-157 -167 0
-157 -168 0
-157 -169 0
-157 -170 0
-158 -159 0
-158 -160 0
-158 -161 0
-158 -162 0
-158 -163 0
-158 -164 0
-158 -165 0
-158 -166 0
-158 -167 0
-158 -168 0
-158 -169 0
-158 -170 0
-159 -160 0
-159 -161 0
-159 -162 0
-159 -163 0
-159 -164 0
-159 -165 0
-159 -166 0
-159 -167 0
-159 -168 0
-159 -169 0
-159 -170 0
-160 -161 0
-160 -162 0
-160 -163 0
-160 -164 0
-160 -165 0
-160 -166 0
-160 -167 0
-160 -168 0
-160 -169 0
-160 -170 0
-161 -162 0
-161 -163 0
-161 -164 0
-161 -165 0
-161 -166 0
-161 -167 0
-161 -168 0
-161 -169 0
-161 -170 0
-162 -163 0
-162 -164 0
-162 -165 0
-162 -166 0
-162 -167 0
-162 -168 0
-162 -169 0
-162 -170 0
-163 -164 0
-163 -165 0
-163 -166 0
-163 -167 0
-163 -168 0
-163 -169 0
-163 -170 0
-164 -165 0
-164 -166 0
-164 -167 0
-164 -168 0
-164 -169 0
-164 -170 0
-165 -166 0
-165 -167 0
-165 -168 0
-165 -169 0
-165 -170 0
-166 -167 0
-166 -168 0
-166 -169 0
-166 -170 0
-167 -168 0
-167 -169 0
-167 -170 0
-168 -169 0
-168 -170 0
-169 -170 0
-144 58 157 0
-144 -58 158 0
-145 58 158 0
-145 -58 159 0
-146 58 159 0
-146 -58 160 0
-147 58 160 0
-147 -58 161 0
-148 58 161 0
-148 -58 162 0
-149 58 162 0
-149 -58 163 0
-150 58 163 0
-150 -58 164 0
-151 58 164 0
-151 -58 165 0
-152 58 165 0
-152 -58 166 0
-153 58 166 0
-153 -58 167 0
-154 58 167 0
-154 -58 168 0
-155 58 168 0
-155 -58 169 0
-156 58 169 0
-156 -58 170 0
171 172 173 174 175 176 177 178 179 180 181 182 183 184 185 0
-171 -172 0
-171 -173 0
-171 -174 0
-171 -175 0
-171 -176 0
-171 -177 0
-171 -178 0
-171 -179 0
-171 -180 0
-171 -181 0
-171 -182 0
-171 -183 0
-171 -184 0
-171 -185 0
-172 -173 0
-172 -174 0
-172 -175 0
-172 -176 0
-172 -177 0
-172 -178 0
-172 -179 0
-172 -180 0
-172 -181 0
-172 -182 0
-172 -183 0
-172 -184 0
-172 -185 0
-173 -174 0
-173 -175 0
-173 -176 0
-173 -177 0
-173 -178 0
-173 -179 0
-173 -180 0
-173 -181 0
-173 -182 0
-173 -183 0
-173 -184 0
-173 -185 0
-174 -175 0
-174 -176 0
-174 -177 0
-174 -178 0
-174 -179 0
-174 -180 0
-174 -181 0
-174 -182 0
-174 -183 0
-174 -184 0
-174 -185 0
-175 -176 0
-175 -177 0
-175 -178 0
-175 -179 0
-175 -180 0
-175 -181 0
-175 -182 0
-175 -183 0
-175 -184 0
-175 -185 0
-176 -177 0
-176 -178 0
-176 -179 0
-176 -180 0
-176 -181 0
-176 -182 0
-176 -183 0
-176 -184 0
-176 -185 0
-177 -178 0
-177 -179 0
-177 -180 0
-177 -181 0
-177 -182 0
-177 -183 0
-177 -184 0
-177 -185 0
-178 -179 0
-178 -180 0
-178 -181 0
-178 -182 0
-178 -183 0
-178 -184 0
-178 -185 0
-179 -180 0
-179 -181 0
-179 -182 0
-179 -183 0
-179 -184 0
-179 -185 0
-180 -181 0
-180 -182 0
-180 -183 0
-180 -184 0
-180 -185 0
-181 -182 0
-181 -183 0
-181 -184 0
-181 -185 0
-182 -183 0
-182 -184 0
-182 -185 0
-183 -184 0
-183 -185 0
-184 -185 0
-157 59 171 0
-157 -59 172 0
-158 59 172 0
-158 -59 173 0
-159 59 173 0
-159 -59 174 0
-160 59 174 0
-160 -59 175 0
-161 59 175 0
-161 -59 176 0
-162 59 176 0
-162 -59 177 0
-163 59 177 0
-163 -59 178 0
-164 59 178 0
-164 -59 179 0
-165 59 179 0
-165 -59 180 0
-166 59 180 0
-166 -59 181 0
-167 59 181 0
-167 -59 182 0
-168 59 182 0
-168 -59 183 0
-169 59 183 0
-169 -59 184 0
-170 59 184 0
-170 -59 185 0
186 187 188 189 190 191 192 193 194 195 196 197 198 199 200 201 0
-186 -187 0
-186 -188 0
-186 -189 0
-186 -190 0
-186 -191 0
-186 -192 0
-186 -193 0
-186 -194 0
-186 -195 0
-186 -196 0
-186 -197 0
-186 -198 0
-186 -199 0
-186 -200 0
-186 -201 0
-187 -188 0
-187 -189 0
-187 -190 0
-187 -191 0
-187 -192 0
-187 -193 0
-187 -194 0
-187 -195 0
-187 -196 0
-187 -197 0
-187 -198 0
-187 -199 0
-187 -200 0
-187 -201 0
-188 -189 0
-188 -190 0
-188 -191 0
-188 -192 0
-188 -193 0
-188 -194 0
-188 -195 0
-188 -196 0
-188 -197 0
-188 -198 0
-188 -199 0
-188 -200 0
-188 -201 0
-189 -190 0
-189 -191 0
-189 -192 0
-189 -193 0
-189 -194 0
-189 -195 0
-189 -196 0
-189 -197 0
-189 -198 0
-189 -199 0
-189 -200 0
-189 -201 0
-190 -191 0
-190 -192 0
-190 -193 0
-190 -194 0
-190 -195 0
-190 -196 0
-190 -197 0
-190 -198 0
-190 -199 0
-190 -200 0
-190 -201 0
-191 -192 0
-191 -193 0
-191 -194 0
-191 -195 0
-191 -196 0
-191 -197 0
-191 -198 0
-191 -199 0
-191 -200 0
-191 -201 0
-192 -193 0
-192 -194 0
-192 -195 0
-192 -196 0
-192 -197 0
-192 -198 0
-192 -199 0
-192 -200 0
-192 -201 0
-193 -194 0
-193 -195 0
-193 -196 0
-193 -197 0
-193 -198 0
-193 -199 0
-193 -200 0
-193 -201 0
-194 -195 0
-194 -196 0
-194 -197 0
-194 -198 0
-194 -199 0
-194 -200 0
-194 -201 0
-195 -196 0
-195 -197 0
-195 -198 0
-195 -199 0
-195 -200 0
-195 -201 0
-196 -197 0
-196 -198 0
-196 -199 0
-196 -200 0
-196 -201 0
-197 -198 0
-197 -199 0
-197 -200 0
-197 -201 0
-198 -199 0
-198 -200 0
-198 -201 0
-199 -200 0
-199 -201 0
-200 -201 0
-171 60 186 0
-171 -60 187 0
-172 60 187 0
-172 -60 188 0
-173 60 188 0
-173 -60 189 0
-174 60 189 0
-174 -60 190 0
-175 60 190 0
-175 -60 191 0
-176 60 191 0
-176 -60 192 0
-177 60 192 0
-177 -60 193 0
-178 60 193 0
-178 -60 194 0
-179 60 194 0
-179 -60 195 0
-180 60 195 0
-180 -60 196 0
-181 60 196 0
-181 -60 197 0
-182 60 197 0
-182 -60 198 0
-183 60 198 0
-183 -60 199 0
-184 60 199 0
-184 -60 200 0
-185 60 200 0
-185 -60 201 0
202 203 204 205 206 207 208 209 210 211 212 213 214 215 216 217 218 0
-202 -203 0
-202 -204 0
-202 -205 0
-202 -206 0
-202 -207 0
-202 -208 0
-202 -209 0
-202 -210 0
-202 -211 0
-202 -212 0
-202 -213 0
-202 -214 0
-202 -215 0
-202 -216 0
-202 -217 0
-202 -218 0
-203 -204 0
-203 -205 0
-203 -206 0
-203 -207 0
-203 -208 0
-203 -209 0
-203 -210 0
-203 -211 0
-203 -212 0
-203 -213 0
-203 -214 0
-203 -215 0
-203 -216 0
-203 -217 0
-203 -218 0
-204 -205 0
-204 -206 0
-204 -207 0
-204 -208 0
-204 -209 0
-204 -210 0
-204 -211 0
-204 -212 0
-204 -213 0
-204 -214 0
-204 -215 0
-204 -216 0
-204 -217 0
-204 -218 0
-205 -206 0
-205 -207 0
-205 -208 0
-205 -209 0
-205 -210 0
-205 -211 0
-205 -212 0
-205 -213 0
-205 -214 0
-205 -215 0
-205 -216 0
-205 -217 0
-205 -218 0
-206 -207 0
-206 -208 0
-206 -209 0
-206 -210 0
-206 -211 0
-206 -212 0
-206 -213 0
-206 -214 0
-206 -215 0
-206 -216 0
-206 -217 0
-206 -218 0
-207 -208 0
-207 -209 0
-207 -210 0
-207 -211 0
-207 -212 0
-207 -213 0
-207 -214 0
-207 -215 0
-207 -216 0
-207 -217 0
-207 -218 0
-208 -209 0
-208 -210 0
-208 -211 0
-208 -212 0
-208 -213 0
-208 -214 0
-208 -215 0
-208 -216 0
-208 -217 0
-208 -218 0
-209 -210 0
-209 -211 0
-209 -212 0
-209 -213 0
-209 -214 0
-209 -215 0
-209 -216 0
-209 -217 0
-209 -218 0
-210 -211 0
-210 -212 0
-210 -213 0
-210 -214 0
-210 -215 0
-210 -216 0
-210 -217 0
-210 -218 0
-211 -212 0
-211 -213 0
-211 -214 0
-211 -215 0
-211 -216 0
-211 -217 0
-211 -218 0
-212 -213 0
-212 -214 0
-212 -215 0
-212 -216 0
-212 -217 0
-212 -218 0
-213 -214 0
-213 -215 0
-213 -216 0
-213 -217 0
-213 -218 0
-214 -215 0
-214 -216 0
-214 -217 0
-214 -218 0
-215 -216 0
-215 -217 0
-215 -218 0
-216 -217 0
-216 -218 0
-217 -218 0
-186 61 202 0
-186 -61 203 0
-187 61 203 0
-187 -61 204 0
-188 61 204 0
-188 -61 205 0
-189 61 205 0
-189 -61 206 0
-190 61 206 0
-190 -61 207 0
-191 61 207 0
-191 -61 208 0
-192 61 208 0
-192 -61 209 0
-193 61 209 0
-193 -61 210 0
-194 61 210 0
-194 -61 211 0
-195 61 211 0
-195 -61 212 0
-196 61 212 0
-196 -61 213 0
-197 61 213 0
-197 -61 214 0
-198 61 214 0
-198 -61 215 0
-199 61 215 0
-199 -61 216 0
-200 61 216 0
-200 -61 217 0
-201 61 217 0
-201 -61 218 0
219 220 221 222 223 224 225 226 227 228 229 230 231 232 233 234 235 236 0
-219 -220 0
-219 -221 0
-219 -222 0
-219 -223 0
-219 -224 0
-219 -225 0
-219 -226 0
-219 -227 0
-219 -228 0
-219 -229 0
-219 -230 0
-219 -231 0
-219 -232 0
-219 -233 0
-219 -234 0
-219 -235 0
-219 -236 0
-220 -221 0
-220 -222 0
-220 -223 0
-220 -224 0
-220 -225 0
-220 -226 0
-220 -227 0
-220 -228 0
-220 -229 0
-220 -230 0
-220 -231 0
-220 -232 0
-220 -233 0
-220 -234 0
-220 -235 0
-220 -236 0
-221 -222 0
-221 -223 0
-221 -224 0
-221 -225 0
-221 -226 0
-221 -227 0
-221 -228 0
-221 -229 0
-221 -230 0
-221 -231 0
-221 -232 0
-221 -233 0
-221 -234 0
-221 -235 0
-221 -236 0
-222 -223 0
-222 -224 0
-222 -225 0
-222 -226 0
-222 -227 0
-222 -228 0
-222 -229 0
-222 -230 0
-222 -231 0
-222 -232 0
-222 -233 0
-222 -234 0
-222 -235 0
-222 -236 0
-223 -224 0
-223 -225 0
-223 -226 0
-223 -227 0
-223 -228 0
-223 -229 0
-223 -230 0
-223 -231 0
-223 -232 0
-223 -233 0
-223 -234 0
-223 -235 0
-223 -236 0
-224 -225 0
-224 -226 0
-224 -227 0
-224 -228 0
-224 -229 0
-224 -230 0
-224 -231 0
-224 -232 0
-224 -233 0
-224 -234 0
-224 -235 0
-224 -236 0
-225 -226 0
-225 -227 0
-225 -228 0
-225 -229 0
-225 -230 0
-225 -231 0
-225 -232 0
-225 -233 0
-225 -234 0
-225 -235 0
-225 -236 0
-226 -227 0
-226 -228 0
-226 -229 0
-226 -230 0
-226 -231 0
-226 -232 0
-226 -233 0
-226 -234 0
-226 -235 0
-226 -236 0
-227 -228 0
-227 -229 0
-227 -230 0
-227 -231 0
-227 -232 0
-227 -233 0
-227 -234 0
-227 -235 0
-227 -236 0
-228 -229 0
-228 -230 0
-228 -231 0
-228 -232 0
-228 -233 0
-228 -234 0
-228 -235 0
-228 -236 0
-229 -230 0
-229 -231 0
-229 -232 0
-229 -233 0
-229 -234 0
-229 -235 0
-229 -236 0
-230 -231 0
-230 -232 0
-230 -233 0
-230 -234 0
-230 -235 0
-230 -236 0
-231 -232 0
-231 -233 0
-231 -234 0
-231 -235 0
-231 -236 0
-232 -233 0
-232 -234 0
-232 -235 0
-232 -236 0
-233 -234 0
-233 -235 0
-233 -236 0
-234 -235 0
-234 -236 0
-235 -236 0
-202 62 219 0
-202 -62 220 0
-203 62 220 0
-203 -62 221 0
-204 62 221 0
-204 -62 222 0
-205 62 222 0
-205 -62 223 0
-206 62 223 0
-206 -62 224 0
-207 62 224 0
-207 -62 225 0
-208 62 225 0
-208 -62 226 0
-209 62 226 0
-209 -62 227 0
-210 62 227 0
-210 -62 228 0
-211 62 228 0
-211 -62 229 0
-212 62 229 0
-212 -62 230 0
-213 62 230 0
-213 -62 231 0
-214 62 231 0
-214 -62 232 0
-215 62 232 0
-215 -62 233 0
-216 62 233 0
-216 -62 234 0
-217 62 234 0
-217 -62 235 0
-218 62 235 0
-218 -62 236 0
237 238 239 240 241 242 243 244 245 246 247 248 249 250 251 252 253 254 255 0
-237 -238 0
-237 -239 0
-237 -240 0
-237 -241 0
-237 -242 0
-237 -243 0
-237 -244 0
-237 -245 0
-237 -246 0
-237 -247 0
-237 -248 0
-237 -249 0
-237 -250 0
-237 -251 0
-237 -252 0
-237 -253 0
-237 -254 0
-237 -255 0
-238 -239 0
-238 -240 0
-238 -241 0
-238 -242 0
-238 -243 0
-238 -244 0
-238 -245 0
-238 -246 0
-238 -247 0
-238 -248 0
-238 -249 0
-238 -250 0
-238 -251 0
-238 -252 0
-238 -253 0
-238 -254 0
-238 -255 0
-239 -240 0
-239 -241 0
-239 -242 0
-239 -243 0
-239 -244 0
-239 -245 0
-239 -246 0
-239 -247 0
-239 -248 0
-239 -249 0
-239 -250 0
-239 -251 0
-239 -252 0
-239 -253 0
-239 -254 0
-239 -255 0
-240 -241 0
-240 -242 0
-240 -243 0
-240 -244 0
-240 -245 0
-240 -246 0
-240 -247 0
-240 -248 0
-240 -249 0
-240 -250 0
-240 -251 0
-240 -252 0
-240 -253 0
-240 -254 0
-240 -255 0
-241 -242 0
-241 -243 0
-241 -244 0
-241 -245 0
-241 -246 0
-241 -247 0
-241 -248 0
-241 -249 0
-241 -250 0
-241 -251 0
-241 -252 0
-241 -253 0
-241 -254 0
-241 -255 0
-242 -243 0
-242 -244 0
-242 -245 0
-242 -246 0
-242 -247 0
-242 -248 0
-242 -249 0
-242 -250 0
-242 -251 0
-242 -252 0
-242 -253 0
-242 -254 0
-242 -255 0
-243 -244 0
-243 -245 0
-243 -246 0
-243 -247 0
-243 -248 0
-243 -249 0
-243 -250 0
-243 -251 0
-243 -252 0
-243 -253 0
-243 -254 0
-243 -255 0
-244 -245 0
-244 -246 0
-244 -247 0
-244 -248 0
-244 -249 0
-244 -250 0
-244 -251 0
-244 -252 0
-244 -253 0
-244 -254 0
-244 -255 0
-245 -246 0
-245 -247 0
-245 -248 0
-245 -249 0
-245 -250 0
-245 -251 0
-245 -252 0
-245 -253 0
-245 -254 0
-245 -255 0
-246 -247 0
-246 -248 0
-246 -249 0
-246 -250 0
-246 -251 0
-246 -252 0
-246 -253 0
-246 -254 0
-246 -255 0
-247 -248 0
-247 -249 0
-247 -250 0
-247 -251 0
-247 -252 0
-247 -253 0
-247 -254 0
-247 -255 0
-248 -249 0
-248 -250 0
-248 -251 0
-248 -252 0
-248 -253 0
-248 -254 0
-248 -255 0
-249 -250 0
-249 -251 0
-249 -252 0
-249 -253 0
-249 -254 0
-249 -255 0
-250 -251 0
-250 -252 0
-250 -253 0
-250 -254 0
-250 -255 0
-251 -252 0
-251 -253 0
-251 -254 0
-251 -255 0
-252 -253 0
-252 -254 0
-252 -255 0
-253 -254 0
-253 -255 0
-254 -255 0
-219 63 237 0
-219 -63 238 0
-220 63 238 0
-220 -63 239 0
-221 63 239 0
-221 -63 240 0
-222 63 240 0
-222 -63 241 0
-223 63 241 0
-223 -63 242 0
-224 63 242 0
-224 -63 243 0
-225 63 243 0
-225 -63 244 0
-226 63 244 0
-226 -63 245 0
-227 63 245 0
-227 -63 246 0
-228 63 246 0
-228 -63 247 0
-229 63 247 0
-229 -63 248 0
-230 63 248 0
-230 -63 249 0
-231 63 249 0
-231 -63 250 0
-232 63 250 0
-232 -63 251 0
-233 63 251 0
-233 -63 252 0
-234 63 252 0
-234 -63 253 0
-235 63 253 0
-235 -63 254 0
-236 63 254 0
-236 -63 255 0
256 257 258 259 260 261 262 263 264 265 266 267 268 269 270 271 272 273 274 275 0
-256 -257 0
-256 -258 0
-256 -259 0
-256 -260 0
-256 -261 0
-256 -262 0
-256 -263 0
-256 -264 0
-256 -265 0
-256 -266 0
-256 -267 0
-256 -268 0
-256 -269 0
-256 -270 0
-256 -271 0
-256 -272 0
-256 -273 0
-256 -274 0
-256 -275 0
-257 -258 0
-257 -259 0
-257 -260 0
-257 -261 0
-257 -262 0
-257 -263 0
-257 -264 0
-257 -265 0
-257 -266 0
-257 -267 0
-257 -268 0
-257 -269 0
-257 -270 0
-257 -271 0
-257 -272 0
-257 -273 0
-257 -274 0
-257 -275 0
-258 -259 0
-258 -260 0
-258 -261 0
-258 -262 0
-258 -263 0
-258 -264 0
-258 -265 0
-258 -266 0
-258 -267 0
-258 -268 0
-258 -269 0
-258 -270 0
-258 -271 0
-258 -272 0
-258 -273 0
-258 -274 0
-258 -275 0
-259 -260 0
-259 -261 0
-259 -262 0
-259 -263 0
-259 -264 0
-259 -265 0
-259 -266 0
-259 -267 0
-259 -268 0
-259 -269 0
-259 -270 0
-259 -271 0
-259 -272 0
-259 -273 0
-259 -274 0
-259 -275 0
-260 -261 0
-260 -262 0
-260 -263 0
-260 -264 0
-260 -265 0
-260 -266 0
-260 -267 0
-260 -268 0
-260 -269 0
-260 -270 0
-260 -271 0
-260 -272 0
-260 -273 0
-260 -274 0
-260 -275 0
-261 -262 0
-261 -263 0
-261 -264 0
-261 -265 0
-261 -266 0
-261 -267 0
-261 -268 0
-261 -269 0
-261 -270 0
-261 -271 0
-261 -272 0
-261 -273 0
-261 -274 0
-261 -275 0
-262 -263 0
-262 -264 0
-262 -265 0
-262 -266 0
-262 -267 0
-262 -268 0
-262 -269 0
-262 -270 0
-262 -271 0
-262 -272 0
-262 -273 0
-262 -274 0
-262 -275 0
-263 -264 0
-263 -265 0
-263 -266 0
-263 -267 0
-263 -268 0
-263 -269 0
-263 -270 0
-263 -271 0
-263 -272 0
-263 -273 0
-263 -274 0
-263 -275 0
-264 -265 0
-264 -266 0
-264 -267 0
-264 -268 0
-264 -269 0
-264 -270 0
-264 -271 0
-264 -272 0
-264 -273 0
-264 -274 0
-264 -275 0
-265 -266 0
-265 -267 0
-265 -268 0
-265 -269 0
-265 -270 0
-265 -271 0
-265 -272 0
-265 -273 0
-265 -274 0
-265 -275 0
-266 -267 0
-266 -268 0
-266 -269 0
-266 -270 0
-266 -271 0
-266 -272 0
-266 -273 0
-266 -274 0
-266 -275 0
-267 -268 0
-267 -269 0
-267 -270 0
-267 -271 0
-267 -272 0
-267 -273 0
-267 -274 0
-267 -275 0
-268 -269 0
-268 -270 0
-268 -271 0
-268 -272 0
-268 -273 0
-268 -274 0
-268 -275 0
-269 -270 0
-269 -271 0
-269 -272 0
-269 -273 0
-269 -274 0
-269 -275 0
-270 -271 0
-270 -272 0
-270 -273 0
-270 -274 0
-270 -275 0
-271 -272 0
-271 -273 0
-271 -274 0
-271 -275 0
-272 -273 0
-272 -274 0
-272 -275 0
-273 -274 0
-273 -275 0
-274 -275 0
-237 64 256 0
-237 -64 257 0
-238 64 257 0
-238 -64 258 0
-239 64 258 0
-239 -64 259 0
-240 64 259 0
-240 -64 260 0
-241 64 260 0
-241 -64 261 0
-242 64 261 0
-242 -64 262 0
-243 64 262 0
-243 -64 263 0
-244 64 263 0
-244 -64 264 0
-245 64 264 0
-245 -64 265 0
-246 64 265 0
-246 -64 266 0
-247 64 266 0
-247 -64 267 0
-248 64 267 0
-248 -64 268 0
-249 64 268 0
-249 -64 269 0
-250 64 269 0
-250 -64 270 0
-251 64 270 0
-251 -64 271 0
-252 64 271 0
-252 -64 272 0
-253 64 272 0
-253 -64 273 0
-254 64 273 0
-254 -64 274 0
-255 64 274 0
-255 -64 275 0
276 277 278 279 280 281 282 283 284 285 286 287 288 289 290 291 292 293 294 295 296 0
-276 -277 0
-276 -278 0
-276 -279 0
-276 -280 0
-276 -281 0
-276 -282 0
-276 -283 0
-276 -284 0
-276 -285 0
-276 -286 0
-276 -287 0
-276 -288 0
-276 -289 0
-276 -290 0
-276 -291 0
-276 -292 0
-276 -293 0
-276 -294 0
-276 -295 0
-276 -296 0
-277 -278 0
-277 -279 0
-277 -280 0
-277 -281 0
-277 -282 0
-277 -283 0
-277 -284 0
-277 -285 0
-277 -286 0
-277 -287 0
-277 -288 0
-277 -289 0
-277 -290 0
-277 -291 0
-277 -292 0
-277 -293 0
-277 -294 0
-277 -295 0
-277 -296 0
-278 -279 0
-278 -280 0
-278 -281 0
-278 -282 0
-278 -283 0
-278 -284 0
-278 -285 0
-278 -286 0
-278 -287 0
-278 -288 0
-278 -289 0
-278 -290 0
-278 -291 0
-278 -292 0
-278 -293 0
-278 -294 0
-278 -295 0
-278 -296 0
-279 -280 0
-279 -281 0
-279 -282 0
-279 -283 0
-279 -284 0
-279 -285 0
-279 -286 0
-279 -287 0
-279 -288 0
-279 -289 0
-279 -290 0
-279 -291 0
-279 -292 0
-279 -293 0
-279 -294 0
-279 -295 0
-279 -296 0
-280 -281 0
-280 -282 0
-280 -283 0
-280 -284 0
-280 -285 0
-280 -286 0
-280 -287 0
-280 -288 0
-280 -289 0
-280 -290 0
-280 -291 0
-280 -292 0
-280 -293 0
-280 -294 0
-280 -295 0
-280 -296 0
-281 -282 0
-281 -283 0
-281 -284 0
-281 -285 0
-281 -286 0
-281 -287 0
-281 -288 0
-281 -289 0
-281 -290 0
-281 -291 0
-281 -292 0
-281 -293 0
-281 -294 0
-281 -295 0
-281 -296 0
-282 -283 0
-282 -284 0
-282 -285 0
-282 -286 0
-282 -287 0
-282 -288 0
-282 -289 0
-282 -290 0
-282 -291 0
-282 -292 0
-282 -293 0
-282 -294 0
-282 -295 0
-282 -296 0
-283 -284 0
-283 -285 0
-283 -286 0
-283 -287 0
-283 -288 0
-283 -289 0
-283 -290 0
-283 -291 0
-283 -292 0
-283 -293 0
-283 -294 0
-283 -295 0
-283 -296 0
-284 -285 0
-284 -286 0
-284 -287 0
-284 -288 0
-284 -289 0
-284 -290 0
-284 -291 0
-284 -292 0
-284 -293 0
-284 -294 0
-284 -295 0
-284 -296 0
-285 -286 0
-285 -287 0
-285 -288 0
-285 -289 0
-285 -290 0
-285 -291 0
-285 -292 0
-285 -293 0
-285 -294 0
-285 -295 0
-285 -296 0
-286 -287 0
-286 -288 0
-286 -289 0
-286 -290 0
-286 -291 0
-286 -292 0
-286 -293 0
-286 -294 0
-286 -295 0
-286 -296 0
-287 -288 0
-287 -289 0
-287 -290 0
-287 -291 0
-287 -292 0
-287 -293 0
-287 -294 0
-287 -295 0
-287 -296 0
-288 -289 0
-288 -290 0
-288 -291 0
-288 -292 0
-288 -293 0
-288 -294 0
-288 -295 0
-288 -296 0
-289 -290 0
-289 -291 0
-289 -292 0
-289 -293 0
-289 -294 0
-289 -295 0
-289 -296 0
-290 -291 0
-290 -292 0
-290 -293 0
-290 -294 0
-290 -295 0
-290 -296 0
-291 -292 0
-291 -293 0
-291 -294 0
-291 -295 0
-291 -296 0
-292 -293 0
-292 -294 0
-292 -295 0
-292 -296 0
-293 -294 0
-293 -295 0
-293 -296 0
-294 -295 0
-294 -296 0
-295 -296 0
-256 65 276 0
-256 -65 277 0
-257 65 277 0
-257 -65 278 0
-258 65 278 0
-258 -65 279 0
-259 65 279 0
-259 -65 280 0
-260 65 280 0
-260 -65 281 0
-261 65 281 0
-261 -65 282 0
-262 65 282 0
-262 -65 283 0
-263 65 283 0
-263 -65 284 0
-264 65 284 0
-264 -65 285 0
-265 65 285 0
-265 -65 286 0
-266 65 286 0
-266 -65 287 0
-267 65 287 0
-267 -65 288 0
-268 65 288 0
-268 -65 289 0
-269 65 289 0
-269 -65 290 0
-270 65 290 0
-270 -65 291 0
-271 65 291 0
-271 -65 292 0
-272 65 292 0
-272 -65 293 0
-273 65 293 0
-273 -65 294 0
-274 65 294 0
-274 -65 295 0
-275 65 295 0
-275 -65 296 0
297 298 299 300 301 302 303 304 305 306 307 308 309 310 311 312 313 314 315 316 317 318 0
-297 -298 0
-297 -299 0
-297 -300 0
-297 -301 0
-297 -302 0
-297 -303 0
-297 -304 0
-297 -305 0
-297 -306 0
-297 -307 0
-297 -308 0
-297 -309 0
-297 -310 0
-297 -311 0
-297 -312 0
-297 -313 0
-297 -314 0
-297 -315 0
-297 -316 0
-297 -317 0
-297 -318 0
-298 -299 0
-298 -300 0
-298 -301 0
-298 -302 0
-298 -303 0
-298 -304 0
-298 -305 0
-298 -306 0
-298 -307 0
-298 -308 0
-298 -309 0
-298 -310 0
-298 -311 0
-298 -312 0
-298 -313 0
-298 -314 0
-298 -315 0
-298 -316 0
-298 -317 0
-298 -318 0
-299 -300 0
-299 -301 0
-299 -302 0
-299 -303 0
-299 -304 0
-299 -305 0
-299 -306 0
-299 -307 0
-299 -308 0
-299 -309 0
-299 -310 0
-299 -311 0
-299 -312 0
-299 -313 0
-299 -314 0
-299 -315 0
-299 -316 0
-299 -317 0
-299 -318 0
-300 -301 0
-300 -302 0
-300 -303 0
-300 -304 0
-300 -305 0
-300 -306 0
-300 -307 0
-300 -308 0
-300 -309 0
-300 -310 0
-300 -311 0
-300 -312 0
-300 -313 0
-300 -314 0
-300 -315 0
-300 -316 0
-300 -317 0
-300 -318 0
-301 -302 0
-301 -303 0
-301 -304 0
-301 -305 0
-301 -306 0
-301 -307 0
-301 -308 0
-301 -309 0
-301 -310 0
-301 -311 0
-301 -312 0
-301 -313 0
-301 -314 0
-301 -315 0
-301 -316 0
-301 -317 0
-301 -318 0
-302 -303 0
-302 -304 0
-302 -305 0
-302 -306 0
-302 -307 0
-302 -308 0
-302 -309 0
-302 -310 0
-302 -311 0
-302 -312 0
-302 -313 0
-302 -314 0
-302 -315 0
-302 -316 0
-302 -317 0
-302 -318 0
-303 -304 0
-303 -305 0
-303 -306 0
-303 -307 0
-303 -308 0
-303 -309 0
-303 -310 0
-303 -311 0
-303 -312 0
-303 -313 0
-303 -314 0
-303 -315 0
-303 -316 0
-303 -317 0
-303 -318 0
-304 -305 0
-304 -306 0
-304 -307 0
-304 -308 0
-304 -309 0
-304 -310 0
-304 -311 0
-304 -312 0
-304 -313 0
-304 -314 0
-304 -315 0
-304 -316 0
-304 -317 0
-304 -318 0
-305 -306 0
-305 -307 0
-305 -308 0
-305 -309 0
-305 -310 0
-305 -311 0
-305 -312 0
-305 -313 0
-305 -314 0
-305 -315 0
-305 -316 0
-305 -317 0
-305 -318 0
-306 -307 0
-306 -308 0
-306 -309 0
-306 -310 0
-306 -311 0
-306 -312 0
-306 -313 0
-306 -314 0
-306 -315 0
-306 -316 0
-306 -317 0
-306 -318 0
-307 -308 0
-307 -309 0
-307 -310 0
-307 -311 0
-307 -312 0
-307 -313 0
-307 -314 0
-307 -315 0
-307 -316 0
-307 -317 0
-307 -318 0
-308 -309 0
-308 -310 0
-308 -311 0
-308 -312 0
-308 -313 0
-308 -314 0
-308 -315 0
-308 -316 0
-308 -317 0
-308 -318 0
-309 -310 0
-309 -311 0
-309 -312 0
-309 -313 0
-309 -314 0
-309 -315 0
-309 -316 0
-309 -317 0
-309 -318 0
-310 -311 0
-310 -312 0
-310 -313 0
-310 -314 0
-310 -315 0
-310 -316 0
-310 -317 0
-310 -318 0
-311 -312 0
-311 -313 0
-311 -314 0
-311 -315 0
-311 -316 0
-311 -317 0
-311 -318 0
-312 -313 0
-312 -314 0
-312 -315 0
-312 -316 0
-312 -317 0
-312 -318 0
-313 -314 0
-313 -315 0
-313 -316 0
-313 -317 0
-313 -318 0
-314 -315 0
-314 -316 0
-314 -317 0
-314 -318 0
-315 -316 0
-315 -317 0
-315 -318 0
-316 -317 0
-316 -318 0
-317 -318 0
-276 3 298 0
-276 -3 297 0
-277 3 299 0
-277 -3 298 0
-278 3 300 0
-278 -3 299 0
-279 3 301 0
-279 -3 300 0
-280 3 302 0
-280 -3 301 0
-281 3 303 0
-281 -3 302 0
-282 3 304 0
-282 -3 303 0
-283 3 305 0
-283 -3 304 0
-284 3 306 0
-284 -3 305 0
-285 3 307 0
-285 -3 306 0
-286 3 308 0
-286 -3 307 0
-287 3 309 0
-287 -3 308 0
-288 3 310 0
-288 -3 309 0
-289 3 311 0
-289 -3 310 0
-290 3 312 0
-290 -3 311 0
-291 3 313 0
-291 -3 312 0
-292 3 314 0
-292 -3 313 0
-293 3 315 0
-293 -3 314 0
-294 3 316 0
-294 -3 315 0
-295 3 317 0
-295 -3 316 0
-296 3 318 0
-296 -3 317 0
319 320 321 322 323 324 325 326 327 328 329 330 331 332 333 334 335 336 337 338 339 340 341 0
-319 -320 0
-319 -321 0
-319 -322 0
-319 -323 0
-319 -324 0
-319 -325 0
-319 -326 0
-319 -327 0
-319 -328 0
-319 -329 0
-319 -330 0
-319 -331 0
-319 -332 0
-319 -333 0
-319 -334 0
-319 -335 0
-319 -336 0
-319 -337 0
-319 -338 0
-319 -339 0
-319 -340 0
-319 -341 0
-320 -321 0
-320 -322 0
-320 -323 0
-320 -324 0
-320 -325 0
-320 -326 0
-320 -327 0
-320 -328 0
-320 -329 0
-320 -330 0
-320 -331 0
-320 -332 0
-320 -333 0
-320 -334 0
-320 -335 0
-320 -336 0
-320 -337 0
-320 -338 0
-320 -339 0
-320 -340 0
-320 -341 0
-321 -322 0
-321 -323 0
-321 -324 0
-321 -325 0
-321 -326 0
-321 -327 0
-321 -328 0
-321 -329 0
-321 -330 0
-321 -331 0
-321 -332 0
-321 -333 0
-321 -334 0
-321 -335 0
-321 -336 0
-321 -337 0
-321 -338 0
-321 -339 0
-321 -340 0
-321 -341 0
-322 -323 0
-322 -324 0
-322 -325 0
-322 -326 0
-322 -327 0
-322 -328 0
-322 -329 0
-322 -330 0
-322 -331 0
-322 -332 0
-322 -333 0
-322 -334 0
-322 -335 0
-322 -336 0
-322 -337 0
-322 -338 0
-322 -339 0
-322 -340 0
-322 -341 0
-323 -324 0
-323 -325 0
-323 -326 0
-323 -327 0
-323 -328 0
-323 -329 0
-323 -330 0
-323 -331 0
-323 -332 0
-323 -333 0
-323 -334 0
-323 -335 0
-323 -336 0
-323 -337 0
-323 -338 0
-323 -339 0
-323 -340 0
-323 -341 0
-324 -325 0
-324 -326 0
-324 -327 0
-324 -328 0
-324 -329 0
-324 -330 0
-324 -331 0
-324 -332 0
-324 -333 0
-324 -334 0
-324 -335 0
-324 -336 0
-324 -337 0
-324 -338 0
-324 -339 0
-324 -340 0
-324 -341 0
-325 -326 0
-325 -327 0
-325 -328 0
-325 -329 0
-325 -330 0
-325 -331 0
-325 -332 0
-325 -333 0
-325 -334 0
-325 -335 0
-325 -336 0
-325 -337 0
-325 -338 0
-325 -339 0
-325 -340 0
-325 -341 0
-326 -327 0
-326 -328 0
-326 -329 0
-326 -330 0
-326 -331 0
-326 -332 0
-326 -333 0
-326 -334 0
-326 -335 0
-326 -336 0
-326 -337 0
-326 -338 0
-326 -339 0
-326 -340 0
-326 -341 0
-327 -328 0
-327 -329 0
-327 -330 0
-327 -331 0
-327 -332 0
-327 -333 0
-327 -334 0
-327 -335 0
-327 -336 0
-327 -337 0
-327 -338 0
-327 -339 0
-327 -340 0
-327 -341 0
-328 -329 0
-328 -330 0
-328 -331 0
-328 -332 0
-328 -333 0
-328 -334 0
-328 -335 0
-328 -336 0
-328 -337 0
-328 -338 0
-328 -339 0
-328 -340 0
-328 -341 0
-329 -330 0
-329 -331 0
-329 -332 0
-329 -333 0
-329 -334 0
-329 -335 0
-329 -336 0
-329 -337 0
-329 -338 0
-329 -339 0
-329 -340 0
-329 -341 0
-330 -331 0
-330 -332 0
-330 -333 0
-330 -334 0
-330 -335 0
-330 -336 0
-330 -337 0
-330 -338 0
-330 -339 0
-330 -340 0
-330 -341 0
-331 -332 0
-331 -333 0
-331 -334 0
-331 -335 0
-331 -336 0
-331 -337 0
-331 -338 0
-331 -339 0
-331 -340 0
-331 -341 0
-332 -333 0
-332 -334 0
-332 -335 0
-332 -336 0
-332 -337 0
-332 -338 0
-332 -339 0
-332 -340 0
-332 -341 0
-333 -334 0
-333 -335 0
-333 -336 0
-333 -337 0
-333 -338 0
-333 -339 0
-333 -340 0
-333 -341 0
-334 -335 0
-334 -336 0
-334 -337 0
-334 -338 0
-334 -339 0
-334 -340 0
-334 -341 0
-335 -336 0
-335 -337 0
-335 -338 0
-335 -339 0
-335 -340 0
-335 -341 0
-336 -337 0
-336 -338 0
-336 -339 0
-336 -340 0
-336 -341 0
-337 -338 0
-337 -339 0
-337 -340 0
-337 -341 0
-338 -339 0
-338 -340 0
-338 -341 0
-339 -340 0
-339 -341 0
-340 -341 0
-297 6 320 0
-297 -6 319 0
-298 6 321 0
-298 -6 320 0
-299 6 322 0
-299 -6 321 0
-300 6 323 0
-300 -6 322 0
-301 6 324 0
-301 -6 323 0
-302 6 325 0
-302 -6 324 0
-303 6 326 0
-303 -6 325 0
-304 6 327 0
-304 -6 326 0
-305 6 328 0
-305 -6 327 0
-306 6 329 0
-306 -6 328 0
-307 6 330 0
-307 -6 329 0
-308 6 331 0
-308 -6 330 0
-309 6 332 0
-309 -6 331 0
-310 6 333 0
-310 -6 332 0
-311 6 334 0
-311 -6 333 0
-312 6 335 0
-312 -6 334 0
-313 6 336 0
-313 -6 335 0
-314 6 337 0
-314 -6 336 0
-315 6 338 0
-315 -6 337 0
-316 6 339 0
-316 -6 338 0
-317 6 340 0
-317 -6 339 0
-318 6 341 0
-318 -6 340 0
342 343 344 345 346 347 348 349 350 351 352 353 354 355 356 357 358 359 360 361 362 363 364 365 0
-342 -343 0
-342 -344 0
-342 -345 0
-342 -346 0
-342 -347 0
-342 -348 0
-342 -349 0
-342 -350 0
-342 -351 0
-342 -352 0
-342 -353 0
-342 -354 0
-342 -355 0
-342 -356 0
-342 -357 0
-342 -358 0
-342 -359 0
-342 -360 0
-342 -361 0
-342 -362 0
-342 -363 0
-342 -364 0
-342 -365 0
-343 -344 0
-343 -345 0
-343 -346 0
-343 -347 0
-343 -348 0
-343 -349 0
-343 -350 0
-343 -351 0
-343 -352 0
-343 -353 0
-343 -354 0
-343 -355 0
-343 -356 0
-343 -357 0
-343 -358 0
-343 -359 0
-343 -360 0
-343 -361 0
-343 -362 0
-343 -363 0
-343 -364 0
-343 -365 0
-344 -345 0
-344 -346 0
-344 -347 0
-344 -348 0
-344 -349 0
-344 -350 0
-344 -351 0
-344 -352 0
-344 -353 0
-344 -354 0
-344 -355 0
-344 -356 0
-344 -357 0
-344 -358 0
-344 -359 0
-344 -360 0
-344 -361 0
-344 -362 0
-344 -363 0
-344 -364 0
-344 -365 0
-345 -346 0
-345 -347 0
-345 -348 0
-345 -349 0
-345 -350 0
-345 -351 0
-345 -352 0
-345 -353 0
-345 -354 0
-345 -355 0
-345 -356 0
-345 -357 0
-345 -358 0
-345 -359 0
-345 -360 0
-345 -361 0
-345 -362 0
-345 -363 0
-345 -364 0
-345 -365 0
-346 -347 0
-346 -348 0
-346 -349 0
-346 -350 0
-346 -351 0
-346 -352 0
-346 -353 0
-346 -354 0
-346 -355 0
-346 -356 0
-346 -357 0
-346 -358 0
-346 -359 0
-346 -360 0
-346 -361 0
-346 -362 0
-346 -363 0
-346 -364 0
-346 -365 0
-347 -348 0
-347 -349 0
-347 -350 0
-347 -351 0
-347 -352 0
-347 -353 0
-347 -354 0
-347 -355 0
-347 -356 0
-347 -357 0
-347 -358 0
-347 -359 0
-347 -360 0
-347 -361 0
-347 -362 0
-347 -363 0
-347 -364 0
-347 -365 0
-348 -349 0
-348 -350 0
-348 -351 0
-348 -352 0
-348 -353 0
-348 -354 0
-348 -355 0
-348 -356 0
-348 -357 0
-348 -358 0
-348 -359 0
-348 -360 0
-348 -361 0
-348 -362 0
-348 -363 0
-348 -364 0
-348 -365 0
-349 -350 0
-349 -351 0
-349 -352 0
-349 -353 0
-349 -354 0
-349 -355 0
-349 -356 0
-349 -357 0
-349 -358 0
-349 -359 0
-349 -360 0
-349 -361 0
-349 -362 0
-349 -363 0
-349 -364 0
-349 -365 0
-350 -351 0
-350 -352 0
-350 -353 0
-350 -354 0
-350 -355 0
-350 -356 0
-350 -357 0
-350 -358 0
-350 -359 0
-350 -360 0
-350 -361 0
-350 -362 0
-350 -363 0
-350 -364 0
-350 -365 0
-351 -352 0
-351 -353 0
-351 -354 0
-351 -355 0
-351 -356 0
-351 -357 0
-351 -358 0
-351 -359 0
-351 -360 0
-351 -361 0
-351 -362 0
-351 -363 0
-351 -364 0
-351 -365 0
-352 -353 0
-352 -354 0
-352 -355 0
-352 -356 0
-352 -357 0
-352 -358 0
-352 -359 0
-352 -360 0
-352 -361 0
-352 -362 0
-352 -363 0
-352 -364 0
-352 -365 0
-353 -354 0
-353 -355 0
-353 -356 0
-353 -357 0
-353 -358 0
-353 -359 0
-353 -360 0
-353 -361 0
-353 -362 0
-353 -363 0
-353 -364 0
-353 -365 0
-354 -355 0
-354 -356 0
-354 -357 0
-354 -358 0
-354 -359 0
-354 -360 0
-354 -361 0
-354 -362 0
-354 -363 0
-354 -364 0
-354 -365 0
-355 -356 0
-355 -357 0
-355 -358 0
-355 -359 0
-355 -360 0
-355 -361 0
-355 -362 0
-355 -363 0
-355 -364 0
-355 -365 0
-356 -357 0
-356 -358 0
-356 -359 0
-356 -360 0
-356 -361 0
-356 -362 0
-356 -363 0
-356 -364 0
-356 -365 0
-357 -358 0
-357 -359 0
-357 -360 0
-357 -361 0
-357 -362 0
-357 -363 0
-357 -364 0
-357 -365 0
-358 -359 0
-358 -360 0
-358 -361 0
-358 -362 0
-358 -363 0
-358 -364 0
-358 -365 0
-359 -360 0
-359 -361 0
-359 -362 0
-359 -363 0
-359 -364 0
-359 -365 0
-360 -361 0
-360 -362 0
-360 -363 0
-360 -364 0
-360 -365 0
-361 -362 0
-361 -363 0
-361 -364 0
-361 -365 0
-362 -363 0
-362 -364 0
-362 -365 0
-363 -364 0
-363 -365 0
-364 -365 0
-319 9 343 0
-319 -9 342 0
-320 9 344 0
-320 -9 343 0
-321 9 345 0
-321 -9 344 0
-322 9 346 0
-322 -9 345 0
-323 9 347 0
-323 -9 346 0
-324 9 348 0
-324 -9 347 0
-325 9 349 0
-325 -9 348 0
-326 9 350 0
-326 -9 349 0
-327 9 351 0
-327 -9 350 0
-328 9 352 0
-328 -9 351 0
-329 9 353 0
-329 -9 352 0
-330 9 354 0
-330 -9 353 0
-331 9 355 0
-331 -9 354 0
-332 9 356 0
-332 -9 355 0
-333 9 357 0
-333 -9 356 0
-334 9 358 0
-334 -9 357 0
-335 9 359 0
-335 -9 358 0
-336 9 360 0
-336 -9 359 0
-337 9 361 0
-337 -9 360 0
-338 9 362 0
-338 -9 361 0
-339 9 363 0
-339 -9 362 0
-340 9 364 0
-340 -9 363 0
-341 9 365 0
-341 -9 364 0
366 367 368 369 370 371 372 373 374 375 376 377 378 379 380 381 382 383 384 385 386 387 388 389 390 0
-366 -367 0
-366 -368 0
-366 -369 0
-366 -370 0
-366 -371 0
-366 -372 0
-366 -373 0
-366 -374 0
-366 -375 0
-366 -376 0
-366 -377 0
-366 -378 0
-366 -379 0
-366 -380 0
-366 -381 0
-366 -382 0
-366 -383 0
-366 -384 0
-366 -385 0
-366 -386 0
-366 -387 0
-366 -388 0
-366 -389 0
-366 -390 0
-367 -368 0
-367 -369 0
-367 -370 0
-367 -371 0
-367 -372 0
-367 -373 0
-367 -374 0
-367 -375 0
-367 -376 0
-367 -377 0
-367 -378 0
-367 -379 0
-367 -380 0
-367 -381 0
-367 -382 0
-367 -383 0
-367 -384 0
-367 -385 0
-367 -386 0
-367 -387 0
-367 -388 0
-367 -389 0
-367 -390 0
-368 -369 0
-368 -370 0
-368 -371 0
-368 -372 0
-368 -373 0
-368 -374 0
-368 -375 0
-368 -376 0
-368 -377 0
-368 -378 0
-368 -379 0
-368 -380 0
-368 -381 0
-368 -382 0
-368 -383 0
-368 -384 0
-368 -385 0
-368 -386 0
-368 -387 0
-368 -388 0
-368 -389 0
-368 -390 0
-369 -370 0
-369 -371 0
-369 -372 0
-369 -373 0
-369 -374 0
-369 -375 0
-369 -376 0
-369 -377 0
-369 -378 0
-369 -379 0
-369 -380 0
-369 -381 0
-369 -382 0
-369 -383 0
-369 -384 0
-369 -385 0
-369 -386 0
-369 -387 0
-369 -388 0
-369 -389 0
-369 -390 0
-370 -371 0
-370 -372 0
-370 -373 0
-370 -374 0
-370 -375 0
-370 -376 0
-370 -377 0
-370 -378 0
-370 -379 0
-370 -380 0
-370 -381 0
-370 -382 0
-370 -383 0
-370 -384 0
-370 -385 0
-370 -386 0
-370 -387 0
-370 -388 0
-370 -389 0
-370 -390 0
-371 -372 0
-371 -373 0
-371 -374 0
-371 -375 0
-371 -376 0
-371 -377 0
-371 -378 0
-371 -379 0
-371 -380 0
-371 -381 0
-371 -382 0
-371 -383 0
-371 -384 0
-371 -385 0
-371 -386 0
-371 -387 0
-371 -388 0
-371 -389 0
-371 -390 0
-372 -373 0
-372 -374 0
-372 -375 0
-372 -376 0
-372 -377 0
-372 -378 0
-372 -379 0
-372 -380 0
-372 -381 0
-372 -382 0
-372 -383 0
-372 -384 0
-372 -385 0
-372 -386 0
-372 -387 0
-372 -388 0
-372 -389 0
-372 -390 0
-373 -374 0
-373 -375 0
-373 -376 0
-373 -377 0
-373 -378 0
-373 -379 0
-373 -380 0
-373 -381 0
-373 -382 0
-373 -383 0
-373 -384 0
-373 -385 0
-373 -386 0
-373 -387 0
-373 -388 0
-373 -389 0
-373 -390 0
-374 -375 0
-374 -376 0
-374 -377 0
-374 -378 0
-374 -379 0
-374 -380 0
-374 -381 0
-374 -382 0
-374 -383 0
-374 -384 0
-374 -385 0
-374 -386 0
-374 -387 0
-374 -388 0
-374 -389 0
-374 -390 0
-375 -376 0
-375 -377 0
-375 -378 0
-375 -379 0
-375 -380 0
-375 -381 0
-375 -382 0
-375 -383 0
-375 -384 0
-375 -385 0
-375 -386 0
-375 -387 0
-375 -388 0
-375 -389 0
-375 -390 0
-376 -377 0
-376 -378 0
-376 -379 0
-376 -380 0
-376 -381 0
-376 -382 0
-376 -383 0
-376 -384 0
-376 -385 0
-376 -386 0
-376 -387 0
-376 -388 0
-376 -389 0
-376 -390 0
-377 -378 0
-377 -379 0
-377 -380 0
-377 -381 0
-377 -382 0
-377 -383 0
-377 -384 0
-377 -385 0
-377 -386 0
-377 -387 0
-377 -388 0
-377 -389 0
-377 -390 0
-378 -379 0
-378 -380 0
-378 -381 0
-378 -382 0
-378 -383 0
-378 -384 0
-378 -385 0
-378 -386 0
-378 -387 0
-378 -388 0
-378 -389 0
-378 -390 0
-379 -380 0
-379 -381 0
-379 -382 0
-379 -383 0
-379 -384 0
-379 -385 0
-379 -386 0
-379 -387 0
-379 -388 0
-379 -389 0
-379 -390 0
-380 -381 0
-380 -382 0
-380 -383 0
-380 -384 0
-380 -385 0
-380 -386 0
-380 -387 0
-380 -388 0
-380 -389 0
-380 -390 0
-381 -382 0
-381 -383 0
-381 -384 0
-381 -385 0
-381 -386 0
-381 -387 0
-381 -388 0
-381 -389 0
-381 -390 0
-382 -383 0
-382 -384 0
-382 -385 0
-382 -386 0
-382 -387 0
-382 -388 0
-382 -389 0
-382 -390 0
-383 -384 0
-383 -385 0
-383 -386 0
-383 -387 0
-383 -388 0
-383 -389 0
-383 -390 0
-384 -385 0
-384 -386 0
-384 -387 0
-384 -388 0
-384 -389 0
-384 -390 0
-385 -386 0
-385 -387 0
-385 -388 0
-385 -389 0
-385 -390 0
-386 -387 0
-386 -388 0
-386 -389 0
-386 -390 0
-387 -388 0
-387 -389 0
-387 -390 0
-388 -389 0
-388 -390 0
-389 -390 0
-342 12 367 0
-342 -12 366 0
-343 12 368 0
-343 -12 367 0
-344 12 369 0
-344 -12 368 0
-345 12 370 0
-345 -12 369 0
-346 12 371 0
-346 -12 370 0
-347 12 372 0
-347 -12 371 0
-348 12 373 0
-348 -12 372 0
-349 12 374 0
-349 -12 373 0
-350 12 375 0
-350 -12 374 0
-351 12 376 0
-351 -12 375 0
-352 12 377 0
-352 -12 376 0
-353 12 378 0
-353 -12 377 0
-354 12 379 0
-354 -12 378 0
-355 12 380 0
-355 -12 379 0
-356 12 381 0
-356 -12 380 0
-357 12 382 0
-357 -12 381 0
-358 12 383 0
-358 -12 382 0
-359 12 384 0
-359 -12 383 0
-360 12 385 0
-360 -12 384 0
-361 12 386 0
-361 -12 385 0
-362 12 387 0
-362 -12 386 0
-363 12 388 0
-363 -12 387 0
-364 12 389 0
-364 -12 388 0
-365 12 390 0
-365 -12 389 0
391 392 393 394 395 396 397 398 399 400 401 402 403 404 405 406 407 408 409 410 411 412 413 414 415 416 0
-391 -392 0
-391 -393 0
-391 -394 0
-391 -395 0
-391 -396 0
-391 -397 0
-391 -398 0
-391 -399 0
-391 -400 0
-391 -401 0
-391 -402 0
-391 -403 0
-391 -404 0
-391 -405 0
-391 -406 0
-391 -407 0
-391 -408 0
-391 -409 0
-391 -410 0
-391 -411 0
-391 -412 0
-391 -413 0
-391 -414 0
-391 -415 0
-391 -416 0
-392 -393 0
-392 -394 0
-392 -395 0
-392 -396 0
-392 -397 0
-392 -398 0
-392 -399 0
-392 -400 0
-392 -401 0
-392 -402 0
-392 -403 0
-392 -404 0
-392 -405 0
-392 -406 0
-392 -407 0
-392 -408 0
-392 -409 0
-392 -410 0
-392 -411 0
-392 -412 0
-392 -413 0
-392 -414 0
-392 -415 0
-392 -416 0
-393 -394 0
-393 -395 0
-393 -396 0
-393 -397 0
-393 -398 0
-393 -399 0
-393 -400 0
-393 -401 0
-393 -402 0
-393 -403 0
-393 -404 0
-393 -405 0
-393 -406 0
-393 -407 0
-393 -408 0
-393 -409 0
-393 -410 0
-393 -411 0
-393 -412 0
-393 -413 0
-393 -414 0
-393 -415 0
-393 -416 0
-394 -395 0
-394 -396 0
-394 -397 0
-394 -398 0
-394 -399 0
-394 -400 0
-394 -401 0
-394 -402 0
-394 -403 0
-394 -404 0
-394 -405 0
-394 -406 0
-394 -407 0
-394 -408 0
-394 -409 0
-394 -410 0
-394 -411 0
-394 -412 0
-394 -413 0
-394 -414 0
-394 -415 0
-394 -416 0
-395 -396 0
-395 -397 0
-395 -398 0
-395 -399 0
-395 -400 0
-395 -401 0
-395 -402 0
-395 -403 0
-395 -404 0
-395 -405 0
-395 -406 0
-395 -407 0
-395 -408 0
-395 -409 0
-395 -410 0
-395 -411 0
-395 -412 0
-395 -413 0
-395 -414 0
-395 -415 0
-395 -416 0
-396 -397 0
-396 -398 0
-396 -399 0
-396 -400 0
-396 -401 0
-396 -402 0
-396 -403 0
-396 -404 0
-396 -405 0
-396 -406 0
-396 -407 0
-396 -408 0
-396 -409 0
-396 -410 0
-396 -411 0
-396 -412 0
-396 -413 0
-396 -414 0
-396 -415 0
-396 -416 0
-397 -398 0
-397 -399 0
-397 -400 0
-397 -401 0
-397 -402 0
-397 -403 0
-397 -404 0
-397 -405 0
-397 -406 0
-397 -407 0
-397 -408 0
-397 -409 0
-397 -410 0
-397 -411 0
-397 -412 0
-397 -413 0
-397 -414 0
-397 -415 0
-397 -416 0
-398 -399 0
-398 -400 0
-398 -401 0
-398 -402 0
-398 -403 0
-398 -404 0
-398 -405 0
-398 -406 0
-398 -407 0
-398 -408 0
-398 -409 0
-398 -410 0
-398 -411 0
-398 -412 0
-398 -413 0
-398 -414 0
-398 -415 0
-398 -416 0
-399 -400 0
-399 -401 0
-399 -402 0
-399 -403 0
-399 -404 0
-399 -405 0
-399 -406 0
-399 -407 0
-399 -408 0
-399 -409 0
-399 -410 0
-399 -411 0
-399 -412 0
-399 -413 0
-399 -414 0
-399 -415 0
-399 -416 0
-400 -401 0
-400 -402 0
-400 -403 0
-400 -404 0
-400 -405 0
-400 -406 0
-400 -407 0
-400 -408 0
-400 -409 0
-400 -410 0
-400 -411 0
-400 -412 0
-400 -413 0
-400 -414 0
-400 -415 0
-400 -416 0
-401 -402 0
-401 -403 0
-401 -404 0
-401 -405 0
-401 -406 0
-401 -407 0
-401 -408 0
-401 -409 0
-401 -410 0
-401 -411 0
-401 -412 0
-401 -413 0
-401 -414 0
-401 -415 0
-401 -416 0
-402 -403 0
-402 -404 0
-402 -405 0
-402 -406 0
-402 -407 0
-402 -408 0
-402 -409 0
-402 -410 0
-402 -411 0
-402 -412 0
-402 -413 0
-402 -414 0
-402 -415 0
-402 -416 0
-403 -404 0
-403 -405 0
-403 -406 0
-403 -407 0
-403 -408 0
-403 -409 0
-403 -410 0
-403 -411 0
-403 -412 0
-403 -413 0
-403 -414 0
-403 -415 0
-403 -416 0
-404 -405 0
-404 -406 0
-404 -407 0
-404 -408 0
-404 -409 0
-404 -410 0
-404 -411 0
-404 -412 0
-404 -413 0
-404 -414 0
-404 -415 0
-404 -416 0
-405 -406 0
-405 -407 0
-405 -408 0
-405 -409 0
-405 -410 0
-405 -411 0
-405 -412 0
-405 -413 0
-405 -414 0
-405 -415 0
-405 -416 0
-406 -407 0
-406 -408 0
-406 -409 0
-406 -410 0
-406 -411 0
-406 -412 0
-406 -413 0
-406 -414 0
-406 -415 0
-406 -416 0
-407 -408 0
-407 -409 0
-407 -410 0
-407 -411 0
-407 -412 0
-407 -413 0
-407 -414 0
-407 -415 0
-407 -416 0
-408 -409 0
-408 -410 0
-408 -411 0
-408 -412 0
-408 -413 0
-408 -414 0
-408 -415 0
-408 -416 0
-409 -410 0
-409 -411 0
-409 -412 0
-409 -413 0
-409 -414 0
-409 -415 0
-409 -416 0
-410 -411 0
-410 -412 0
-410 -413 0
-410 -414 0
-410 -415 0
-410 -416 0
-411 -412 0
-411 -413 0
-411 -414 0
-411 -415 0
-411 -416 0
-412 -413 0
-412 -414 0
-412 -415 0
-412 -416 0
-413 -414 0
-413 -415 0
-413 -416 0
-414 -415 0
-414 -416 0
-415 -416 0
-366 15 392 0
-366 -15 391 0
-367 15 393 0
-367 -15 392 0
-368 15 394 0
-368 -15 393 0
-369 15 395 0
-369 -15 394 0
-370 15 396 0
-370 -15 395 0
-371 15 397 0
-371 -15 396 0
-372 15 398 0
-372 -15 397 0
-373 15 399 0
-373 -15 398 0
-374 15 400 0
-374 -15 399 0
-375 15 401 0
-375 -15 400 0
-376 15 402 0
-376 -15 401 0
-377 15 403 0
-377 -15 402 0
-378 15 404 0
-378 -15 403 0
-379 15 405 0
-379 -15 404 0
-380 15 406 0
-380 -15 405 0
-381 15 407 0
-381 -15 406 0
-382 15 408 0
-382 -15 407 0
-383 15 409 0
-383 -15 408 0
-384 15 410 0
-384 -15 409 0
-385 15 411 0
-385 -15 410 0
-386 15 412 0
-386 -15 411 0
-387 15 413 0
-387 -15 412 0
-388 15 414 0
-388 -15 413 0
-389 15 415 0
-389 -15 414 0
-390 15 416 0
-390 -15 415 0
417 418 419 420 421 422 423 424 425 426 427 428 429 430 431 432 433 434 435 436 437 438 439 440 441 442 443 0
-417 -418 0
-417 -419 0
-417 -420 0
-417 -421 0
-417 -422 0
-417 -423 0
-417 -424 0
-417 -425 0
-417 -426 0
-417 -427 0
-417 -428 0
-417 -429 0
-417 -430 0
-417 -431 0
-417 -432 0
-417 -433 0
-417 -434 0
-417 -435 0
-417 -436 0
-417 -437 0
-417 -438 0
-417 -439 0
-417 -440 0
-417 -441 0
-417 -442 0
-417 -443 0
-418 -419 0
-418 -420 0
-418 -421 0
-418 -422 0
-418 -423 0
-418 -424 0
-418 -425 0
-418 -426 0
-418 -427 0
-418 -428 0
-418 -429 0
-418 -430 0
-418 -431 0
-418 -432 0
-418 -433 0
-418 -434 0
-418 -435 0
-418 -436 0
-418 -437 0
-418 -438 0
-418 -439 0
-418 -440 0
-418 -441 0
-418 -442 0
-418 -443 0
-419 -420 0
-419 -421 0
-419 -422 0
-419 -423 0
-419 -424 0
-419 -425 0
-419 -426 0
-419 -427 0
-419 -428 0
-419 -429 0
-419 -430 0
-419 -431 0
-419 -432 0
-419 -433 0
-419 -434 0
-419 -435 0
-419 -436 0
-419 -437 0
-419 -438 0
-419 -439 0
-419 -440 0
-419 -441 0
-419 -442 0
-419 -443 0
-420 -421 0
-420 -422 0
-420 -423 0
-420 -424 0
-420 -425 0
-420 -426 0
-420 -427 0
-420 -428 0
-420 -429 0
-420 -430 0
-420 -431 0
-420 -432 0
-420 -433 0
-420 -434 0
-420 -435 0
-420 -436 0
-420 -437 0
-420 -438 0
-420 -439 0
-420 -440 0
-420 -441 0
-420 -442 0
-420 -443 0
-421 -422 0
-421 -423 0
-421 -424 0
-421 -425 0
-421 -426 0
-421 -427 0
-421 -428 0
-421 -429 0
-421 -430 0
-421 -431 0
-421 -432 0
-421 -433 0
-421 -434 0
-421 -435 0
-421 -436 0
-421 -437 0
-421 -438 0
-421 -439 0
-421 -440 0
-421 -441 0
-421 -442 0
-421 -443 0
-422 -423 0
-422 -424 0
-422 -425 0
-422 -426 0
-422 -427 0
-422 -428 0
-422 -429 0
-422 -430 0
-422 -431 0
-422 -432 0
-422 -433 0
-422 -434 0
-422 -435 0
-422 -436 0
-422 -437 0
-422 -438 0
-422 -439 0
-422 -440 0
-422 -441 0
-422 -442 0
-422 -443 0
-423 -424 0
-423 -425 0
-423 -426 0
-423 -427 0
-423 -428 0
-423 -429 0
-423 -430 0
-423 -431 0
-423 -432 0
-423 -433 0
-423 -434 0
-423 -435 0
-423 -436 0
-423 -437 0
-423 -438 0
-423 -439 0
-423 -440 0
-423 -441 0
-423 -442 0
-423 -443 0
-424 -425 0
-424 -426 0
-424 -427 0
-424 -428 0
-424 -429 0
-424 -430 0
-424 -431 0
-424 -432 0
-424 -433 0
-424 -434 0
-424 -435 0
-424 -436 0
-424 -437 0
-424 -438 0
-424 -439 0
-424 -440 0
-424 -441 0
-424 -442 0
-424 -443 0
-425 -426 0
-425 -427 0
-425 -428 0
-425 -429 0
-425 -430 0
-425 -431 0
-425 -432 0
-425 -433 0
-425 -434 0
-425 -435 0
-425 -436 0
-425 -437 0
-425 -438 0
-425 -439 0
-425 -440 0
-425 -441 0
-425 -442 0
-425 -443 0
-426 -427 0
-426 -428 0
-426 -429 0
-426 -430 0
-426 -431 0
-426 -432 0
-426 -433 0
-426 -434 0
-426 -435 0
-426 -436 0
-426 -437 0
-426 -438 0
-426 -439 0
-426 -440 0
-426 -441 0
-426 -442 0
-426 -443 0
-427 -428 0
-427 -429 0
-427 -430 0
-427 -431 0
-427 -432 0
-427 -433 0
-427 -434 0
-427 -435 0
-427 -436 0
-427 -437 0
-427 -438 0
-427 -439 0
-427 -440 0
-427 -441 0
-427 -442 0
-427 -443 0
-428 -429 0
-428 -430 0
-428 -431 0
-428 -432 0
-428 -433 0
-428 -434 0
-428 -435 0
-428 -436 0
-428 -437 0
-428 -438 0
-428 -439 0
-428 -440 0
-428 -441 0
-428 -442 0
-428 -443 0
-429 -430 0
-429 -431 0
-429 -432 0
-429 -433 0
-429 -434 0
-429 -435 0
-429 -436 0
-429 -437 0
-429 -438 0
-429 -439 0
-429 -440 0
-429 -441 0
-429 -442 0
-429 -443 0
-430 -431 0
-430 -432 0
-430 -433 0
-430 -434 0
-430 -435 0
-430 -436 0
-430 -437 0
-430 -438 0
-430 -439 0
-430 -440 0
-430 -441 0
-430 -442 0
-430 -443 0
-431 -432 0
-431 -433 0
-431 -434 0
-431 -435 0
-431 -436 0
-431 -437 0
-431 -438 0
-431 -439 0
-431 -440 0
-431 -441 0
-431 -442 0
-431 -443 0
-432 -433 0
-432 -434 0
-432 -435 0
-432 -436 0
-432 -437 0
-432 -438 0
-432 -439 0
-432 -440 0
-432 -441 0
-432 -442 0
-432 -443 0
-433 -434 0
-433 -435 0
-433 -436 0
-433 -437 0
-433 -438 0
-433 -439 0
-433 -440 0
-433 -441 0
-433 -442 0
-433 -443 0
-434 -435 0
-434 -436 0
-434 -437 0
-434 -438 0
-434 -439 0
-434 -440 0
-434 -441 0
-434 -442 0
-434 -443 0
-435 -436 0
-435 -437 0
-435 -438 0
-435 -439 0
-435 -440 0
-435 -441 0
-435 -442 0
-435 -443 0
-436 -437 0
-436 -438 0
-436 -439 0
-436 -440 0
-436 -441 0
-436 -442 0
-436 -443 0
-437 -438 0
-437 -439 0
-437 -440 0
-437 -441 0
-437 -442 0
-437 -443 0
-438 -439 0
-438 -440 0
-438 -441 0
-438 -442 0
-438 -443 0
-439 -440 0
-439 -441 0
-439 -442 0
-439 -443 0
-440 -441 0
-440 -442 0
-440 -443 0
-441 -442 0
-441 -443 0
-442 -443 0
-391 18 418 0
-391 -18 417 0
-392 18 419 0
-392 -18 418 0
-393 18 420 0
-393 -18 419 0
-394 18 421 0
-394 -18 420 0
-395 18 422 0
-395 -18 421 0
-396 18 423 0
-396 -18 422 0
-397 18 424 0
-397 -18 423 0
-398 18 425 0
-398 -18 424 0
-399 18 426 0
-399 -18 425 0
-400 18 427 0
-400 -18 426 0
-401 18 428 0
-401 -18 427 0
-402 18 429 0
-402 -18 428 0
-403 18 430 0
-403 -18 429 0
-404 18 431 0
-404 -18 430 0
-405 18 432 0
-405 -18 431 0
-406 18 433 0
-406 -18 432 0
-407 18 434 0
-407 -18 433 0
-408 18 435 0
-408 -18 434 0
-409 18 436 0
-409 -18 435 0
-410 18 437 0
-410 -18 436 0
-411 18 438 0
-411 -18 437 0
-412 18 439 0
-412 -18 438 0
-413 18 440 0
-413 -18 439 0
-414 18 441 0
-414 -18 440 0
-415 18 442 0
-415 -18 441 0
-416 18 443 0
-416 -18 442 0
444 445 446 447 448 449 450 451 452 453 454 455 456 457 458 459 460 461 462 463 464 465 466 467 468 469 470 471 0
-444 -445 0
-444 -446 0
-444 -447 0
-444 -448 0
-444 -449 0
-444 -450 0
-444 -451 0
-444 -452 0
-444 -453 0
-444 -454 0
-444 -455 0
-444 -456 0
-444 -457 0
-444 -458 0
-444 -459 0
-444 -460 0
-444 -461 0
-444 -462 0
-444 -463 0
-444 -464 0
-444 -465 0
-444 -466 0
-444 -467 0
-444 -468 0
-444 -469 0
-444 -470 0
-444 -471 0
-445 -446 0
-445 -447 0
-445 -448 0
-445 -449 0
-445 -450 0
-445 -451 0
-445 -452 0
-445 -453 0
-445 -454 0
-445 -455 0
-445 -456 0
-445 -457 0
-445 -458 0
-445 -459 0
-445 -460 0
-445 -461 0
-445 -462 0
-445 -463 0
-445 -464 0
-445 -465 0
-445 -466 0
-445 -467 0
-445 -468 0
-445 -469 0
-445 -470 0
-445 -471 0
-446 -447 0
-446 -448 0
-446 -449 0
-446 -450 0
-446 -451 0
-446 -452 0
-446 -453 0
-446 -454 0
-446 -455 0
-446 -456 0
-446 -457 0
-446 -458 0
-446 -459 0
-446 -460 0
-446 -461 0
-446 -462 0
-446 -463 0
-446 -464 0
-446 -465 0
-446 -466 0
-446 -467 0
-446 -468 0
-446 -469 0
-446 -470 0
-446 -471 0
-447 -448 0
-447 -449 0
-447 -450 0
-447 -451 0
-447 -452 0
-447 -453 0
-447 -454 0
-447 -455 0
-447 -456 0
-447 -457 0
-447 -458 0
-447 -459 0
-447 -460 0
-447 -461 0
-447 -462 0
-447 -463 0
-447 -464 0
-447 -465 0
-447 -466 0
-447 -467 0
-447 -468 0
-447 -469 0
-447 -470 0
-447 -471 0
-448 -449 0
-448 -450 0
-448 -451 0
-448 -452 0
-448 -453 0
-448 -454 0
-448 -455 0
-448 -456 0
-448 -457 0
-448 -458 0
-448 -459 0
-448 -460 0
-448 -461 0
-448 -462 0
-448 -463 0
-448 -464 0
-448 -465 0
-448 -466 0
-448 -467 0
-448 -468 0
-448 -469 0
-448 -470 0
-448 -471 0
-449 -450 0
-449 -451 0
-449 -452 0
-449 -453 0
-449 -454 0
-449 -455 0
-449 -456 0
-449 -457 0
-449 -458 0
-449 -459 0
-449 -460 0
-449 -461 0
-449 -462 0
-449 -463 0
-449 -464 0
-449 -465 0
-449 -466 0
-449 -467 0
-449 -468 0
-449 -469 0
-449 -470 0
-449 -471 0
-450 -451 0
-450 -452 0
-450 -453 0
-450 -454 0
-450 -455 0
-450 -456 0
-450 -457 0
-450 -458 0
-450 -459 0
-450 -460 0
-450 -461 0
-450 -462 0
-450 -463 0
-450 -464 0
-450 -465 0
-450 -466 0
-450 -467 0
-450 -468 0
-450 -469 0
-450 -470 0
-450 -471 0
-451 -452 0
-451 -453 0
-451 -454 0
-451 -455 0
-451 -456 0
-451 -457 0
-451 -458 0
-451 -459 0
-451 -460 0
-451 -461 0
-451 -462 0
-451 -463 0
-451 -464 0
-451 -465 0
-451 -466 0
-451 -467 0
-451 -468 0
-451 -469 0
-451 -470 0
-451 -471 0
-452 -453 0
-452 -454 0
-452 -455 0
-452 -456 0
-452 -457 0
-452 -458 0
-452 -459 0
-452 -460 0
-452 -461 0
-452 -462 0
-452 -463 0
-452 -464 0
-452 -465 0
-452 -466 0
-452 -467 0
-452 -468 0
-452 -469 0
-452 -470 0
-452 -471 0
-453 -454 0
-453 -455 0
-453 -456 0
-453 -457 0
-453 -458 0
-453 -459 0
-453 -460 0
-453 -461 0
-453 -462 0
-453 -463 0
-453 -464 0
-453 -465 0
-453 -466 0
-453 -467 0
-453 -468 0
-453 -469 0
-453 -470 0
-453 -471 0
-454 -455 0
-454 -456 0
-454 -457 0
-454 -458 0
-454 -459 0
-454 -460 0
-454 -461 0
-454 -462 0
-454 -463 0
-454 -464 0
-454 -465 0
-454 -466 0
-454 -467 0
-454 -468 0
-454 -469 0
-454 -470 0
-454 -471 0
-455 -456 0
-455 -457 0
-455 -458 0
-455 -459 0
-455 -460 0
-455 -461 0
-455 -462 0
-455 -463 0
-455 -464 0
-455 -465 0
-455 -466 0
-455 -467 0
-455 -468 0
-455 -469 0
-455 -470 0
-455 -471 0
-456 -457 0
-456 -458 0
-456 -459 0
-456 -460 0
-456 -461 0
-456 -462 0
-456 -463 0
-456 -464 0
-456 -465 0
-456 -466 0
-456 -467 0
-456 -468 0
-456 -469 0
-456 -470 0
-456 -471 0
-457 -458 0
-457 -459 0
-457 -460 0
-457 -461 0
-457 -462 0
-457 -463 0
-457 -464 0
-457 -465 0
-457 -466 0
-457 -467 0
-457 -468 0
-457 -469 0
-457 -470 0
-457 -471 0
-458 -459 0
-458 -460 0
-458 -461 0
-458 -462 0
-458 -463 0
-458 -464 0
-458 -465 0
-458 -466 0
-458 -467 0
-458 -468 0
-458 -469 0
-458 -470 0
-458 -471 0
-459 -460 0
-459 -461 0
-459 -462 0
-459 -463 0
-459 -464 0
-459 -465 0
-459 -466 0
-459 -467 0
-459 -468 0
-459 -469 0
-459 -470 0
-459 -471 0
-460 -461 0
-460 -462 0
-460 -463 0
-460 -464 0
-460 -465 0
-460 -466 0
-460 -467 0
-460 -468 0
-460 -469 0
-460 -470 0
-460 -471 0
-461 -462 0
-461 -463 0
-461 -464 0
-461 -465 0
-461 -466 0
-461 -467 0
-461 -468 0
-461 -469 0
-461 -470 0
-461 -471 0
-462 -463 0
-462 -464 0
-462 -465 0
-462 -466 0
-462 -467 0
-462 -468 0
-462 -469 0
-462 -470 0
-462 -471 0
-463 -464 0
-463 -465 0
-463 -466 0
-463 -467 0
-463 -468 0
-463 -469 0
-463 -470 0
-463 -471 0
-464 -465 0
-464 -466 0
-464 -467 0
-464 -468 0
-464 -469 0
-464 -470 0
-464 -471 0
-465 -466 0
-465 -467 0
-465 -468 0
-465 -469 0
-465 -470 0
-465 -471 0
-466 -467 0
-466 -468 0
-466 -469 0
-466 -470 0
-466 -471 0
-467 -468 0
-467 -469 0
-467 -470 0
-467 -471 0
-468 -469 0
-468 -470 0
-468 -471 0
-469 -470 0
-469 -471 0
-470 -471 0
-417 21 445 0
-417 -21 444 0
-418 21 446 0
-418 -21 445 0
-419 21 447 0
-419 -21 446 0
-420 21 448 0
-420 -21 447 0
-421 21 449 0
-421 -21 448 0
-422 21 450 0
-422 -21 449 0
-423 21 451 0
-423 -21 450 0
-424 21 452 0
-424 -21 451 0
-425 21 453 0
-425 -21 452 0
-426 21 454 0
-426 -21 453 0
-427 21 455 0
-427 -21 454 0
-428 21 456 0
-428 -21 455 0
-429 21 457 0
-429 -21 456 0
-430 21 458 0
-430 -21 457 0
-431 21 459 0
-431 -21 458 0
-432 21 460 0
-432 -21 459 0
-433 21 461 0
-433 -21 460 0
-434 21 462 0
-434 -21 461 0
-435 21 463 0
-435 -21 462 0
-436 21 464 0
-436 -21 463 0
-437 21 465 0
-437 -21 464 0
-438 21 466 0
-438 -21 465 0
-439 21 467 0
-439 -21 466 0
-440 21 468 0
-440 -21 467 0
-441 21 469 0
-441 -21 468 0
-442 21 470 0
-442 -21 469 0
-443 21 471 0
-443 -21 470 0
472 473 474 475 476 477 478 479 480 481 482 483 484 485 486 487 488 489 490 491 492 493 494 495 496 497 498 499 500 0
-472 -473 0
-472 -474 0
-472 -475 0
-472 -476 0
-472 -477 0
-472 -478 0
-472 -479 0
-472 -480 0
-472 -481 0
-472 -482 0
-472 -483 0
-472 -484 0
-472 -485 0
-472 -486 0
-472 -487 0
-472 -488 0
-472 -489 0
-472 -490 0
-472 -491 0
-472 -492 0
-472 -493 0
-472 -494 0
-472 -495 0
-472 -496 0
-472 -497 0
-472 -498 0
-472 -499 0
-472 -500 0
-473 -474 0
-473 -475 0
-473 -476 0
-473 -477 0
-473 -478 0
-473 -479 0
-473 -480 0
-473 -481 0
-473 -482 0
-473 -483 0
-473 -484 0
-473 -485 0
-473 -486 0
-473 -487 0
-473 -488 0
-473 -489 0
-473 -490 0
-473 -491 0
-473 -492 0
-473 -493 0
-473 -494 0
-473 -495 0
-473 -496 0
-473 -497 0
-473 -498 0
-473 -499 0
-473 -500 0
-474 -475 0
-474 -476 0
-474 -477 0
-474 -478 0
-474 -479 0
-474 -480 0
-474 -481 0
-474 -482 0
-474 -483 0
-474 -484 0
-474 -485 0
-474 -486 0
-474 -487 0
-474 -488 0
-474 -489 0
-474 -490 0
-474 -491 0
-474 -492 0
-474 -493 0
-474 -494 0
-474 -495 0
-474 -496 0
-474 -497 0
-474 -498 0
-474 -499 0
-474 -500 0
-475 -476 0
-475 -477 0
-475 -478 0
-475 -479 0
-475 -480 0
-475 -481 0
-475 -482 0
-475 -483 0
-475 -484 0
-475 -485 0
-475 -486 0
-475 -487 0
-475 -488 0
-475 -489 0
-475 -490 0
-475 -491 0
-475 -492 0
-475 -493 0
-475 -494 0
-475 -495 0
-475 -496 0
-475 -497 0
-475 -498 0
-475 -499 0
-475 -500 0
-476 -477 0
-476 -478 0
-476 -479 0
-476 -480 0
-476 -481 0
-476 -482 0
-476 -483 0
-476 -484 0
-476 -485 0
-476 -486 0
-476 -487 0
-476 -488 0
-476 -489 0
-476 -490 0
-476 -491 0
-476 -492 0
-476 -493 0
-476 -494 0
-476 -495 0
-476 -496 0
-476 -497 0
-476 -498 0
-476 -499 0
-476 -500 0
-477 -478 0
-477 -479 0
-477 -480 0
-477 -481 0
-477 -482 0
-477 -483 0
-477 -484 0
-477 -485 0
-477 -486 0
-477 -487 0
-477 -488 0
-477 -489 0
-477 -490 0
-477 -491 0
-477 -492 0
-477 -493 0
-477 -494 0
-477 -495 0
-477 -496 0
-477 -497 0
-477 -498 0
-477 -499 0
-477 -500 0
-478 -479 0
-478 -480 0
-478 -481 0
-478 -482 0
-478 -483 0
-478 -484 0
-478 -485 0
-478 -486 0
-478 -487 0
-478 -488 0
-478 -489 0
-478 -490 0
-478 -491 0
-478 -492 0
-478 -493 0
-478 -494 0
-478 -495 0
-478 -496 0
-478 -497 0
-478 -498 0
-478 -499 0
-478 -500 0
-479 -480 0
-479 -481 0
-479 -482 0
-479 -483 0
-479 -484 0
-479 -485 0
-479 -486 0
-479 -487 0
-479 -488 0
-479 -489 0
-479 -490 0
-479 -491 0
-479 -492 0
-479 -493 0
-479 -494 0
-479 -495 0
-479 -496 0
-479 -497 0
-479 -498 0
-479 -499 0
-479 -500 0
-480 -481 0
-480 -482 0
-480 -483 0
-480 -484 0
-480 -485 0
-480 -486 0
-480 -487 0
-480 -488 0
-480 -489 0
-480 -490 0
-480 -491 0
-480 -492 0
-480 -493 0
-480 -494 0
-480 -495 0
-480 -496 0
-480 -497 0
-480 -498 0
-480 -499 0
-480 -500 0
-481 -482 0
-481 -483 0
-481 -484 0
-481 -485 0
-481 -486 0
-481 -487 0
-481 -488 0
-481 -489 0
-481 -490 0
-481 -491 0
-481 -492 0
-481 -493 0
-481 -494 0
-481 -495 0
-481 -496 0
-481 -497 0
-481 -498 0
-481 -499 0
-481 -500 0
-482 -483 0
-482 -484 0
-482 -485 0
-482 -486 0
-482 -487 0
-482 -488 0
-482 -489 0
-482 -490 0
-482 -491 0
-482 -492 0
-482 -493 0
-482 -494 0
-482 -495 0
-482 -496 0
-482 -497 0
-482 -498 0
-482 -499 0
-482 -500 0
-483 -484 0
-483 -485 0
-483 -486 0
-483 -487 0
-483 -488 0
-483 -489 0
-483 -490 0
-483 -491 0
-483 -492 0
-483 -493 0
-483 -494 0
-483 -495 0
-483 -496 0
-483 -497 0
-483 -498 0
-483 -499 0
-483 -500 0
-484 -485 0
-484 -486 0
-484 -487 0
-484 -488 0
-484 -489 0
-484 -490 0
-484 -491 0
-484 -492 0
-484 -493 0
-484 -494 0
-484 -495 0
-484 -496 0
-484 -497 0
-484 -498 0
-484 -499 0
-484 -500 0
-485 -486 0
-485 -487 0
-485 -488 0
-485 -489 0
-485 -490 0
-485 -491 0
-485 -492 0
-485 -493 0
-485 -494 0
-485 -495 0
-485 -496 0
-485 -497 0
-485 -498 0
-485 -499 0
-485 -500 0
-486 -487 0
-486 -488 0
-486 -489 0
-486 -490 0
-486 -491 0
-486 -492 0
-486 -493 0
-486 -494 0
-486 -495 0
-486 -496 0
-486 -497 0
-486 -498 0
-486 -499 0
-486 -500 0
-487 -488 0
-487 -489 0
-487 -490 0
-487 -491 0
-487 -492 0
-487 -493 0
-487 -494 0
-487 -495 0
-487 -496 0
-487 -497 0
-487 -498 0
-487 -499 0
-487 -500 0
-488 -489 0
-488 -490 0
-488 -491 0
-488 -492 0
-488 -493 0
-488 -494 0
-488 -495 0
-488 -496 0
-488 -497 0
-488 -498 0
-488 -499 0
-488 -500 0
-489 -490 0
-489 -491 0
-489 -492 0
-489 -493 0
-489 -494 0
-489 -495 0
-489 -496 0
-489 -497 0
-489 -498 0
-489 -499 0
-489 -500 0
-490 -491 0
-490 -492 0
-490 -493 0
-490 -494 0
-490 -495 0
-490 -496 0
-490 -497 0
-490 -498 0
-490 -499 0
-490 -500 0
-491 -492 0
-491 -493 0
-491 -494 0
-491 -495 0
-491 -496 0
-491 -497 0
-491 -498 0
-491 -499 0
-491 -500 0
-492 -493 0
-492 -494 0
-492 -495 0
-492 -496 0
-492 -497 0
-492 -498 0
-492 -499 0
-492 -500 0
-493 -494 0
-493 -495 0
-493 -496 0
-493 -497 0
-493 -498 0
-493 -499 0
-493 -500 0
-494 -495 0
-494 -496 0
-494 -497 0
-494 -498 0
-494 -499 0
-494 -500 0
-495 -496 0
-495 -497 0
-495 -498 0
-495 -499 0
-495 -500 0
-496 -497 0
-496 -498 0
-496 -499 0
-496 -500 0
-497 -498 0
-497 -499 0
-497 -500 0
-498 -499 0
-498 -500 0
-499 -500 0
-444 24 473 0
-444 -24 472 0
-445 24 474 0
-445 -24 473 0
-446 24 475 0
-446 -24 474 0
-447 24 476 0
-447 -24 475 0
-448 24 477 0
-448 -24 476 0
-449 24 478 0
-449 -24 477 0
-450 24 479 0
-450 -24 478 0
-451 24 480 0
-451 -24 479 0
-452 24 481 0
-452 -24 480 0
-453 24 482 0
-453 -24 481 0
-454 24 483 0
-454 -24 482 0
-455 24 484 0
-455 -24 483 0
-456 24 485 0
-456 -24 484 0
-457 24 486 0
-457 -24 485 0
-458 24 487 0
-458 -24 486 0
-459 24 488 0
-459 -24 487 0
-460 24 489 0
-460 -24 488 0
-461 24 490 0
-461 -24 489 0
-462 24 491 0
-462 -24 490 0
-463 24 492 0
-463 -24 491 0
-464 24 493 0
-464 -24 492 0
-465 24 494 0
-465 -24 493 0
-466 24 495 0
-466 -24 494 0
-467 24 496 0
-467 -24 495 0
-468 24 497 0
-468 -24 496 0
-469 24 498 0
-469 -24 497 0
-470 24 499 0
-470 -24 498 0
-471 24 500 0
-471 -24 499 0
501 502 503 504 505 506 507 508 509 510 511 512 513 514 515 516 517 518 519 520 521 522 523 524 525 526 527 528 529 530 0
-501 -502 0
-501 -503 0
-501 -504 0
-501 -505 0
-501 -506 0
-501 -507 0
-501 -508 0
-501 -509 0
-501 -510 0
-501 -511 0
-501 -512 0
-501 -513 0
-501 -514 0
-501 -515 0
-501 -516 0
-501 -517 0
-501 -518 0
-501 -519 0
-501 -520 0
-501 -521 0
-501 -522 0
-501 -523 0
-501 -524 0
-501 -525 0
-501 -526 0
-501 -527 0
-501 -528 0
-501 -529 0
-501 -530 0
-502 -503 0
-502 -504 0
-502 -505 0
-502 -506 0
-502 -507 0
-502 -508 0
-502 -509 0
-502 -510 0
-502 -511 0
-502 -512 0
-502 -513 0
-502 -514 0
-502 -515 0
-502 -516 0
-502 -517 0
-502 -518 0
-502 -519 0
-502 -520 0
-502 -521 0
-502 -522 0
-502 -523 0
-502 -524 0
-502 -525 0
-502 -526 0
-502 -527 0
-502 -528 0
-502 -529 0
-502 -530 0
-503 -504 0
-503 -505 0
-503 -506 0
-503 -507 0
-503 -508 0
-503 -509 0
-503 -510 0
-503 -511 0
-503 -512 0
-503 -513 0
-503 -514 0
-503 -515 0
-503 -516 0
-503 -517 0
-503 -518 0
-503 -519 0
-503 -520 0
-503 -521 0
-503 -522 0
-503 -523 0
-503 -524 0
-503 -525 0
-503 -526 0
-503 -527 0
-503 -528 0
-503 -529 0
-503 -530 0
-504 -505 0
-504 -506 0
-504 -507 0
-504 -508 0
-504 -509 0
-504 -510 0
-504 -511 0
-504 -512 0
-504 -513 0
-504 -514 0
-504 -515 0
-504 -516 0
-504 -517 0
-504 -518 0
-504 -519 0
-504 -520 0
-504 -521 0
-504 -522 0
-504 -523 0
-504 -524 0
-504 -525 0
-504 -526 0
-504 -527 0
-504 -528 0
-504 -529 0
-504 -530 0
-505 -506 0
-505 -507 0
-505 -508 0
-505 -509 0
-505 -510 0
-505 -511 0
-505 -512 0
-505 -513 0
-505 -514 0
-505 -515 0
-505 -516 0
-505 -517 0
-505 -518 0
-505 -519 0
-505 -520 0
-505 -521 0
-505 -522 0
-505 -523 0
-505 -524 0
-505 -525 0
-505 -526 0
-505 -527 0
-505 -528 0
-505 -529 0
-505 -530 0
-506 -507 0
-506 -508 0
-506 -509 0
-506 -510 0
-506 -511 0
-506 -512 0
-506 -513 0
-506 -514 0
-506 -515 0
-506 -516 0
-506 -517 0
-506 -518 0
-506 -519 0
-506 -520 0
-506 -521 0
-506 -522 0
-506 -523 0
-506 -524 0
-506 -525 0
-506 -526 0
-506 -527 0
-506 -528 0
-506 -529 0
-506 -530 0
-507 -508 0
-507 -509 0
-507 -510 0
-507 -511 0
-507 -512 0
-507 -513 0
-507 -514 0
-507 -515 0
-507 -516 0
-507 -517 0
-507 -518 0
-507 -519 0
-507 -520 0
-507 -521 0
-507 -522 0
-507 -523 0
-507 -524 0
-507 -525 0
-507 -526 0
-507 -527 0
-507 -528 0
-507 -529 0
-507 -530 0
-508 -509 0
-508 -510 0
-508 -511 0
-508 -512 0
-508 -513 0
-508 -514 0
-508 -515 0
-508 -516 0
-508 -517 0
-508 -518 0
-508 -519 0
-508 -520 0
-508 -521 0
-508 -522 0
-508 -523 0
-508 -524 0
-508 -525 0
-508 -526 0
-508 -527 0
-508 -528 0
-508 -529 0
-508 -530 0
-509 -510 0
-509 -511 0
-509 -512 0
-509 -513 0
-509 -514 0
-509 -515 0
-509 -516 0
-509 -517 0
-509 -518 0
-509 -519 0
-509 -520 0
-509 -521 0
-509 -522 0
-509 -523 0
-509 -524 0
-509 -525 0
-509 -526 0
-509 -527 0
-509 -528 0
-509 -529 0
-509 -530 0
-510 -511 0
-510 -512 0
-510 -513 0
-510 -514 0
-510 -515 0
-510 -516 0
-510 -517 0
-510 -518 0
-510 -519 0
-510 -520 0
-510 -521 0
-510 -522 0
-510 -523 0
-510 -524 0
-510 -525 0
-510 -526 0
-510 -527 0
-510 -528 0
-510 -529 0
-510 -530 0
-511 -512 0
-511 -513 0
-511 -514 0
-511 -515 0
-511 -516 0
-511 -517 0
-511 -518 0
-511 -519 0
-511 -520 0
-511 -521 0
-511 -522 0
-511 -523 0
-511 -524 0
-511 -525 0
-511 -526 0
-511 -527 0
-511 -528 0
-511 -529 0
-511 -530 0
-512 -513 0
-512 -514 0
-512 -515 0
-512 -516 0
-512 -517 0
-512 -518 0
-512 -519 0
-512 -520 0
-512 -521 0
-512 -522 0
-512 -523 0
-512 -524 0
-512 -525 0
-512 -526 0
-512 -527 0
-512 -528 0
-512 -529 0
-512 -530 0
-513 -514 0
-513 -515 0
-513 -516 0
-513 -517 0
-513 -518 0
-513 -519 0
-513 -520 0
-513 -521 0
-513 -522 0
-513 -523 0
-513 -524 0
-513 -525 0
-513 -526 0
-513 -527 0
-513 -528 0
-513 -529 0
-513 -530 0
-514 -515 0
-514 -516 0
-514 -517 0
-514 -518 0
-514 -519 0
-514 -520 0
-514 -521 0
-514 -522 0
-514 -523 0
-514 -524 0
-514 -525 0
-514 -526 0
-514 -527 0
-514 -528 0
-514 -529 0
-514 -530 0
-515 -516 0
-515 -517 0
-515 -518 0
-515 -519 0
-515 -520 0
-515 -521 0
-515 -522 0
-515 -523 0
-515 -524 0
-515 -525 0
-515 -526 0
-515 -527 0
-515 -528 0
-515 -529 0
-515 -530 0
-516 -517 0
-516 -518 0
-516 -519 0
-516 -520 0
-516 -521 0
-516 -522 0
-516 -523 0
-516 -524 0
-516 -525 0
-516 -526 0
-516 -527 0
-516 -528 0
-516 -529 0
-516 -530 0
-517 -518 0
-517 -519 0
-517 -520 0
-517 -521 0
-517 -522 0
-517 -523 0
-517 -524 0
-517 -525 0
-517 -526 0
-517 -527 0
-517 -528 0
-517 -529 0
-517 -530 0
-518 -519 0
-518 -520 0
-518 -521 0
-518 -522 0
-518 -523 0
-518 -524 0
-518 -525 0
-518 -526 0
-518 -527 0
-518 -528 0
-518 -529 0
-518 -530 0
-519 -520 0
-519 -521 0
-519 -522 0
-519 -523 0
-519 -524 0
-519 -525 0
-519 -526 0
-519 -527 0
-519 -528 0
-519 -529 0
-519 -530 0
-520 -521 0
-520 -522 0
-520 -523 0
-520 -524 0
-520 -525 0
-520 -526 0
-520 -527 0
-520 -528 0
-520 -529 0
-520 -530 0
-521 -522 0
-521 -523 0
-521 -524 0
-521 -525 0
-521 -526 0
-521 -527 0
-521 -528 0
-521 -529 0
-521 -530 0
-522 -523 0
-522 -524 0
-522 -525 0
-522 -526 0
-522 -527 0
-522 -528 0
-522 -529 0
-522 -530 0
-523 -524 0
-523 -525 0
-523 -526 0
-523 -527 0
-523 -528 0
-523 -529 0
-523 -530 0
-524 -525 0
-524 -526 0
-524 -527 0
-524 -528 0
-524 -529 0
-524 -530 0
-525 -526 0
-525 -527 0
-525 -528 0
-525 -529 0
-525 -530 0
-526 -527 0
-526 -528 0
-526 -529 0
-526 -530 0
-527 -528 0
-527 -529 0
-527 -530 0
-528 -529 0
-528 -530 0
-529 -530 0
-472 27 502 0
-472 -27 501 0
-473 27 503 0
-473 -27 502 0
-474 27 504 0
-474 -27 503 0
-475 27 505 0
-475 -27 504 0
-476 27 506 0
-476 -27 505 0
-477 27 507 0
-477 -27 506 0
-478 27 508 0
-478 -27 507 0
-479 27 509 0
-479 -27 508 0
-480 27 510 0
-480 -27 509 0
-481 27 511 0
-481 -27 510 0
-482 27 512 0
-482 -27 511 0
-483 27 513 0
-483 -27 512 0
-484 27 514 0
-484 -27 513 0
-485 27 515 0
-485 -27 514 0
-486 27 516 0
-486 -27 515 0
-487 27 517 0
-487 -27 516 0
-488 27 518 0
-488 -27 517 0
-489 27 519 0
-489 -27 518 0
-490 27 520 0
-490 -27 519 0
-491 27 521 0
-491 -27 520 0
-492 27 522 0
-492 -27 521 0
-493 27 523 0
-493 -27 522 0
-494 27 524 0
-494 -27 523 0
-495 27 525 0
-495 -27 524 0
-496 27 526 0
-496 -27 525 0
-497 27 527 0
-497 -27 526 0
-498 27 528 0
-498 -27 527 0
-499 27 529 0
-499 -27 528 0
-500 27 530 0
-500 -27 529 0
531 532 533 534 535 536 537 538 539 540 541 542 543 544 545 546 547 548 549 550 551 552 553 554 555 556 557 558 559 560 561 0
-531 -532 0
-531 -533 0
-531 -534 0
-531 -535 0
-531 -536 0
-531 -537 0
-531 -538 0
-531 -539 0
-531 -540 0
-531 -541 0
-531 -542 0
-531 -543 0
-531 -544 0
-531 -545 0
-531 -546 0
-531 -547 0
-531 -548 0
-531 -549 0
-531 -550 0
-531 -551 0
-531 -552 0
-531 -553 0
-531 -554 0
-531 -555 0
-531 -556 0
-531 -557 0
-531 -558 0
-531 -559 0
-531 -560 0
-531 -561 0
-532 -533 0
-532 -534 0
-532 -535 0
-532 -536 0
-532 -537 0
-532 -538 0
-532 -539 0
-532 -540 0
-532 -541 0
-532 -542 0
-532 -543 0
-532 -544 0
-532 -545 0
-532 -546 0
-532 -547 0
-532 -548 0
-532 -549 0
-532 -550 0
-532 -551 0
-532 -552 0
-532 -553 0
-532 -554 0
-532 -555 0
-532 -556 0
-532 -557 0
-532 -558 0
-532 -559 0
-532 -560 0
-532 -561 0
-533 -534 0
-533 -535 0
-533 -536 0
-533 -537 0
-533 -538 0
-533 -539 0
-533 -540 0
-533 -541 0
-533 -542 0
-533 -543 0
-533 -544 0
-533 -545 0
-533 -546 0
-533 -547 0
-533 -548 0
-533 -549 0
-533 -550 0
-533 -551 0
-533 -552 0
-533 -553 0
-533 -554 0
-533 -555 0
-533 -556 0
-533 -557 0
-533 -558 0
-533 -559 0
-533 -560 0
-533 -561 0
-534 -535 0
-534 -536 0
-534 -537 0
-534 -538 0
-534 -539 0
-534 -540 0
-534 -541 0
-534 -542 0
-534 -543 0
-534 -544 0
-534 -545 0
-534 -546 0
-534 -547 0
-534 -548 0
-534 -549 0
-534 -550 0
-534 -551 0
-534 -552 0
-534 -553 0
-534 -554 0
-534 -555 0
-534 -556 0
-534 -557 0
-534 -558 0
-534 -559 0
-534 -560 0
-534 -561 0
-535 -536 0
-535 -537 0
-535 -538 0
-535 -539 0
-535 -540 0
-535 -541 0
-535 -542 0
-535 -543 0
-535 -544 0
-535 -545 0
-535 -546 0
-535 -547 0
-535 -548 0
-535 -549 0
-535 -550 0
-535 -551 0
-535 -552 0
-535 -553 0
-535 -554 0
-535 -555 0
-535 -556 0
-535 -557 0
-535 -558 0
-535 -559 0
-535 -560 0
-535 -561 0
-536 -537 0
-536 -538 0
-536 -539 0
-536 -540 0
-536 -541 0
-536 -542 0
-536 -543 0
-536 -544 0
-536 -545 0
-536 -546 0
-536 -547 0
-536 -548 0
-536 -549 0
-536 -550 0
-536 -551 0
-536 -552 0
-536 -553 0
-536 -554 0
-536 -555 0
-536 -556 0
-536 -557 0
-536 -558 0
-536 -559 0
-536 -560 0
-536 -561 0
-537 -538 0
-537 -539 0
-537 -540 0
-537 -541 0
-537 -542 0
-537 -543 0
-537 -544 0
-537 -545 0
-537 -546 0
-537 -547 0
-537 -548 0
-537 -549 0
-537 -550 0
-537 -551 0
-537 -552 0
-537 -553 0
-537 -554 0
-537 -555 0
-537 -556 0
-537 -557 0
-537 -558 0
-537 -559 0
-537 -560 0
-537 -561 0
-538 -539 0
-538 -540 0
-538 -541 0
-538 -542 0
-538 -543 0
-538 -544 0
-538 -545 0
-538 -546 0
-538 -547 0
-538 -548 0
-538 -549 0
-538 -550 0
-538 -551 0
-538 -552 0
-538 -553 0
-538 -554 0
-538 -555 0
-538 -556 0
-538 -557 0
-538 -558 0
-538 -559 0
-538 -560 0
-538 -561 0
-539 -540 0
-539 -541 0
-539 -542 0
-539 -543 0
-539 -544 0
-539 -545 0
-539 -546 0
-539 -547 0
-539 -548 0
-539 -549 0
-539 -550 0
-539 -551 0
-539 -552 0
-539 -553 0
-539 -554 0
-539 -555 0
-539 -556 0
-539 -557 0
-539 -558 0
-539 -559 0
-539 -560 0
-539 -561 0
-540 -541 0
-540 -542 0
-540 -543 0
-540 -544 0
-540 -545 0
-540 -546 0
-540 -547 0
-540 -548 0
-540 -549 0
-540 -550 0
-540 -551 0
-540 -552 0
-540 -553 0
-540 -554 0
-540 -555 0
-540 -556 0
-540 -557 0
-540 -558 0
-540 -559 0
-540 -560 0
-540 -561 0
-541 -542 0
-541 -543 0
-541 -544 0
-541 -545 0
-541 -546 0
-541 -547 0
-541 -548 0
-541 -549 0
-541 -550 0
-541 -551 0
-541 -552 0
-541 -553 0
-541 -554 0
-541 -555 0
-541 -556 0
-541 -557 0
-541 -558 0
-541 -559 0
-541 -560 0
-541 -561 0
-542 -543 0
-542 -544 0
-542 -545 0
-542 -546 0
-542 -547 0
-542 -548 0
-542 -549 0
-542 -550 0
-542 -551 0
-542 -552 0
-542 -553 0
-542 -554 0
-542 -555 0
-542 -556 0
-542 -557 0
-542 -558 0
-542 -559 0
-542 -560 0
-542 -561 0
-543 -544 0
-543 -545 0
-543 -546 0
-543 -547 0
-543 -548 0
-543 -549 0
-543 -550 0
-543 -551 0
-543 -552 0
-543 -553 0
-543 -554 0
-543 -555 0
-543 -556 0
-543 -557 0
-543 -558 0
-543 -559 0
-543 -560 0
-543 -561 0
-544 -545 0
-544 -546 0
-544 -547 0
-544 -548 0
-544 -549 0
-544 -550 0
-544 -551 0
-544 -552 0
-544 -553 0
-544 -554 0
-544 -555 0
-544 -556 0
-544 -557 0
-544 -558 0
-544 -559 0
-544 -560 0
-544 -561 0
-545 -546 0
-545 -547 0
-545 -548 0
-545 -549 0
-545 -550 0
-545 -551 0
-545 -552 0
-545 -553 0
-545 -554 0
-545 -555 0
-545 -556 0
-545 -557 0
-545 -558 0
-545 -559 0
-545 -560 0
-545 -561 0
-546 -547 0
-546 -548 0
-546 -549 0
-546 -550 0
-546 -551 0
-546 -552 0
-546 -553 0
-546 -554 0
-546 -555 0
-546 -556 0
-546 -557 0
-546 -558 0
-546 -559 0
-546 -560 0
-546 -561 0
-547 -548 0
-547 -549 0
-547 -550 0
-547 -551 0
-547 -552 0
-547 -553 0
-547 -554 0
-547 -555 0
-547 -556 0
-547 -557 0
-547 -558 0
-547 -559 0
-547 -560 0
-547 -561 0
-548 -549 0
-548 -550 0
-548 -551 0
-548 -552 0
-548 -553 0
-548 -554 0
-548 -555 0
-548 -556 0
-548 -557 0
-548 -558 0
-548 -559 0
-548 -560 0
-548 -561 0
-549 -550 0
-549 -551 0
-549 -552 0
-549 -553 0
-549 -554 0
-549 -555 0
-549 -556 0
-549 -557 0
-549 -558 0
-549 -559 0
-549 -560 0
-549 -561 0
-550 -551 0
-550 -552 0
-550 -553 0
-550 -554 0
-550 -555 0
-550 -556 0
-550 -557 0
-550 -558 0
-550 -559 0
-550 -560 0
-550 -561 0
-551 -552 0
-551 -553 0
-551 -554 0
-551 -555 0
-551 -556 0
-551 -557 0
-551 -558 0
-551 -559 0
-551 -560 0
-551 -561 0
-552 -553 0
-552 -554 0
-552 -555 0
-552 -556 0
-552 -557 0
-552 -558 0
-552 -559 0
-552 -560 0
-552 -561 0
-553 -554 0
-553 -555 0
-553 -556 0
-553 -557 0
-553 -558 0
-553 -559 0
-553 -560 0
-553 -561 0
-554 -555 0
-554 -556 0
-554 -557 0
-554 -558 0
-554 -559 0
-554 -560 0
-554 -561 0
-555 -556 0
-555 -557 0
-555 -558 0
-555 -559 0
-555 -560 0
-555 -561 0
-556 -557 0
-556 -558 0
-556 -559 0
-556 -560 0
-556 -561 0
-557 -558 0
-557 -559 0
-557 -560 0
-557 -561 0
-558 -559 0
-558 -560 0
-558 -561 0
-559 -560 0
-559 -561 0
-560 -561 0
-501 30 532 0
-501 -30 531 0
-502 30 533 0
-502 -30 532 0
-503 30 534 0
-503 -30 533 0
-504 30 535 0
-504 -30 534 0
-505 30 536 0
-505 -30 535 0
-506 30 537 0
-506 -30 536 0
-507 30 538 0
-507 -30 537 0
-508 30 539 0
-508 -30 538 0
-509 30 540 0
-509 -30 539 0
-510 30 541 0
-510 -30 540 0
-511 30 542 0
-511 -30 541 0
-512 30 543 0
-512 -30 542 0
-513 30 544 0
-513 -30 543 0
-514 30 545 0
-514 -30 544 0
-515 30 546 0
-515 -30 545 0
-516 30 547 0
-516 -30 546 0
-517 30 548 0
-517 -30 547 0
-518 30 549 0
-518 -30 548 0
-519 30 550 0
-519 -30 549 0
-520 30 551 0
-520 -30 550 0
-521 30 552 0
-521 -30 551 0
-522 30 553 0
-522 -30 552 0
-523 30 554 0
-523 -30 553 0
-524 30 555 0
-524 -30 554 0
-525 30 556 0
-525 -30 555 0
-526 30 557 0
-526 -30 556 0
-527 30 558 0
-527 -30 557 0
-528 30 559 0
-528 -30 558 0
-529 30 560 0
-529 -30 559 0
-530 30 561 0
-530 -30 560 0
562 563 564 565 566 567 568 569 570 571 572 573 574 575 576 577 578 579 580 581 582 583 584 585 586 587 588 589 590 591 592 593 0
-562 -563 0
-562 -564 0
-562 -565 0
-562 -566 0
-562 -567 0
-562 -568 0
-562 -569 0
-562 -570 0
-562 -571 0
-562 -572 0
-562 -573 0
-562 -574 0
-562 -575 0
-562 -576 0
-562 -577 0
-562 -578 0
-562 -579 0
-562 -580 0
-562 -581 0
-562 -582 0
-562 -583 0
-562 -584 0
-562 -585 0
-562 -586 0
-562 -587 0
-562 -588 0
-562 -589 0
-562 -590 0
-562 -591 0
-562 -592 0
-562 -593 0
-563 -564 0
-563 -565 0
-563 -566 0
-563 -567 0
-563 -568 0
-563 -569 0
-563 -570 0
-563 -571 0
-563 -572 0
-563 -573 0
-563 -574 0
-563 -575 0
-563 -576 0
-563 -577 0
-563 -578 0
-563 -579 0
-563 -580 0
-563 -581 0
-563 -582 0
-563 -583 0
-563 -584 0
-563 -585 0
-563 -586 0
-563 -587 0
-563 -588 0
-563 -589 0
-563 -590 0
-563 -591 0
-563 -592 0
-563 -593 0
-564 -565 0
-564 -566 0
-564 -567 0
-564 -568 0
-564 -569 0
-564 -570 0
-564 -571 0
-564 -572 0
-564 -573 0
-564 -574 0
-564 -575 0
-564 -576 0
-564 -577 0
-564 -578 0
-564 -579 0
-564 -580 0
-564 -581 0
-564 -582 0
-564 -583 0
-564 -584 0
-564 -585 0
-564 -586 0
-564 -587 0
-564 -588 0
-564 -589 0
-564 -590 0
-564 -591 0
-564 -592 0
-564 -593 0
-565 -566 0
-565 -567 0
-565 -568 0
-565 -569 0
-565 -570 0
-565 -571 0
-565 -572 0
-565 -573 0
-565 -574 0
-565 -575 0
-565 -576 0
-565 -577 0
-565 -578 0
-565 -579 0
-565 -580 0
-565 -581 0
-565 -582 0
-565 -583 0
-565 -584 0
-565 -585 0
-565 -586 0
-565 -587 0
-565 -588 0
-565 -589 0
-565 -590 0
-565 -591 0
-565 -592 0
-565 -593 0
-566 -567 0
-566 -568 0
-566 -569 0
-566 -570 0
-566 -571 0
-566 -572 0
-566 -573 0
-566 -574 0
-566 -575 0
-566 -576 0
-566 -577 0
-566 -578 0
-566 -579 0
-566 -580 0
-566 -581 0
-566 -582 0
-566 -583 0
-566 -584 0
-566 -585 0
-566 -586 0
-566 -587 0
-566 -588 0
-566 -589 0
-566 -590 0
-566 -591 0
-566 -592 0
-566 -593 0
-567 -568 0
-567 -569 0
-567 -570 0
-567 -571 0
-567 -572 0
-567 -573 0
-567 -574 0
-567 -575 0
-567 -576 0
-567 -577 0
-567 -578 0
-567 -579 0
-567 -580 0
-567 -581 0
-567 -582 0
-567 -583 0
-567 -584 0
-567 -585 0
-567 -586 0
-567 -587 0
-567 -588 0
-567 -589 0
-567 -590 0
-567 -591 0
-567 -592 0
-567 -593 0
-568 -569 0
-568 -570 0
-568 -571 0
-568 -572 0
-568 -573 0
-568 -574 0
-568 -575 0
-568 -576 0
-568 -577 0
-568 -578 0
-568 -579 0
-568 -580 0
-568 -581 0
-568 -582 0
-568 -583 0
-568 -584 0
-568 -585 0
-568 -586 0
-568 -587 0
-568 -588 0
-568 -589 0
-568 -590 0
-568 -591 0
-568 -592 0
-568 -593 0
-569 -570 0
-569 -571 0
-569 -572 0
-569 -573 0
-569 -574 0
-569 -575 0
-569 -576 0
-569 -577 0
-569 -578 0
-569 -579 0
-569 -580 0
-569 -581 0
-569 -582 0
-569 -583 0
-569 -584 0
-569 -585 0
-569 -586 0
-569 -587 0
-569 -588 0
-569 -589 0
-569 -590 0
-569 -591 0
-569 -592 0
-569 -593 0
-570 -571 0
-570 -572 0
-570 -573 0
-570 -574 0
-570 -575 0
-570 -576 0
-570 -577 0
-570 -578 0
-570 -579 0
-570 -580 0
-570 -581 0
-570 -582 0
-570 -583 0
-570 -584 0
-570 -585 0
-570 -586 0
-570 -587 0
-570 -588 0
-570 -589 0
-570 -590 0
-570 -591 0
-570 -592 0
-570 -593 0
-571 -572 0
-571 -573 0
-571 -574 0
-571 -575 0
-571 -576 0
-571 -577 0
-571 -578 0
-571 -579 0
-571 -580 0
-571 -581 0
-571 -582 0
-571 -583 0
-571 -584 0
-571 -585 0
-571 -586 0
-571 -587 0
-571 -588 0
-571 -589 0
-571 -590 0
-571 -591 0
-571 -592 0
-571 -593 0
-572 -573 0
-572 -574 0
-572 -575 0
-572 -576 0
-572 -577 0
-572 -578 0
-572 -579 0
-572 -580 0
-572 -581 0
-572 -582 0
-572 -583 0
-572 -584 0
-572 -585 0
-572 -586 0
-572 -587 0
-572 -588 0
-572 -589 0
-572 -590 0
-572 -591 0
-572 -592 0
-572 -593 0
-573 -574 0
-573 -575 0
-573 -576 0
-573 -577 0
-573 -578 0
-573 -579 0
-573 -580 0
-573 -581 0
-573 -582 0
-573 -583 0
-573 -584 0
-573 -585 0
-573 -586 0
-573 -587 0
-573 -588 0
-573 -589 0
-573 -590 0
-573 -591 0
-573 -592 0
-573 -593 0
-574 -575 0
-574 -576 0
-574 -577 0
-574 -578 0
-574 -579 0
-574 -580 0
-574 -581 0
-574 -582 0
-574 -583 0
-574 -584 0
-574 -585 0
-574 -586 0
-574 -587 0
-574 -588 0
-574 -589 0
-574 -590 0
-574 -591 0
-574 -592 0
-574 -593 0
-575 -576 0
-575 -577 0
-575 -578 0
-575 -579 0
-575 -580 0
-575 -581 0
-575 -582 0
-575 -583 0
-575 -584 0
-575 -585 0
-575 -586 0
-575 -587 0
-575 -588 0
-575 -589 0
-575 -590 0
-575 -591 0
-575 -592 0
-575 -593 0
-576 -577 0
-576 -578 0
-576 -579 0
-576 -580 0
-576 -581 0
-576 -582 0
-576 -583 0
-576 -584 0
-576 -585 0
-576 -586 0
-576 -587 0
-576 -588 0
-576 -589 0
-576 -590 0
-576 -591 0
-576 -592 0
-576 -593 0
-577 -578 0
-577 -579 0
-577 -580 0
-577 -581 0
-577 -582 0
-577 -583 0
-577 -584 0
-577 -585 0
-577 -586 0
-577 -587 0
-577 -588 0
-577 -589 0
-577 -590 0
-577 -591 0
-577 -592 0
-577 -593 0
-578 -579 0
-578 -580 0
-578 -581 0
-578 -582 0
-578 -583 0
-578 -584 0
-578 -585 0
-578 -586 0
-578 -587 0
-578 -588 0
-578 -589 0
-578 -590 0
-578 -591 0
-578 -592 0
-578 -593 0
-579 -580 0
-579 -581 0
-579 -582 0
-579 -583 0
-579 -584 0
-579 -585 0
-579 -586 0
-579 -587 0
-579 -588 0
-579 -589 0
-579 -590 0
-579 -591 0
-579 -592 0
-579 -593 0
-580 -581 0
-580 -582 0
-580 -583 0
-580 -584 0
-580 -585 0
-580 -586 0
-580 -587 0
-580 -588 0
-580 -589 0
-580 -590 0
-580 -591 0
-580 -592 0
-580 -593 0
-581 -582 0
-581 -583 0
-581 -584 0
-581 -585 0
-581 -586 0
-581 -587 0
-581 -588 0
-581 -589 0
-581 -590 0
-581 -591 0
-581 -592 0
-581 -593 0
-582 -583 0
-582 -584 0
-582 -585 0
-582 -586 0
-582 -587 0
-582 -588 0
-582 -589 0
-582 -590 0
-582 -591 0
-582 -592 0
-582 -593 0
-583 -584 0
-583 -585 0
-583 -586 0
-583 -587 0
-583 -588 0
-583 -589 0
-583 -590 0
-583 -591 0
-583 -592 0
-583 -593 0
-584 -585 0
-584 -586 0
-584 -587 0
-584 -588 0
-584 -589 0
-584 -590 0
-584 -591 0
-584 -592 0
-584 -593 0
-585 -586 0
-585 -587 0
-585 -588 0
-585 -589 0
-585 -590 0
-585 -591 0
-585 -592 0
-585 -593 0
-586 -587 0
-586 -588 0
-586 -589 0
-586 -590 0
-586 -591 0
-586 -592 0
-586 -593 0
-587 -588 0
-587 -589 0
-587 -590 0
-587 -591 0
-587 -592 0
-587 -593 0
-588 -589 0
-588 -590 0
-588 -591 0
-588 -592 0
-588 -593 0
-589 -590 0
-589 -591 0
-589 -592 0
-589 -593 0
-590 -591 0
-590 -592 0
-590 -593 0
-591 -592 0
-591 -593 0
-592 -593 0
-531 33 563 0
-531 -33 562 0
-532 33 564 0
-532 -33 563 0
-533 33 565 0
-533 -33 564 0
-534 33 566 0
-534 -33 565 0
-535 33 567 0
-535 -33 566 0
-536 33 568 0
-536 -33 567 0
-537 33 569 0
-537 -33 568 0
-538 33 570 0
-538 -33 569 0
-539 33 571 0
-539 -33 570 0
-540 33 572 0
-540 -33 571 0
-541 33 573 0
-541 -33 572 0
-542 33 574 0
-542 -33 573 0
-543 33 575 0
-543 -33 574 0
-544 33 576 0
-544 -33 575 0
-545 33 577 0
-545 -33 576 0
-546 33 578 0
-546 -33 577 0
-547 33 579 0
-547 -33 578 0
-548 33 580 0
-548 -33 579 0
-549 33 581 0
-549 -33 580 0
-550 33 582 0
-550 -33 581 0
-551 33 583 0
-551 -33 582 0
-552 33 584 0
-552 -33 583 0
-553 33 585 0
-553 -33 584 0
-554 33 586 0
-554 -33 585 0
-555 33 587 0
-555 -33 586 0
-556 33 588 0
-556 -33 587 0
-557 33 589 0
-557 -33 588 0
-558 33 590 0
-558 -33 589 0
-559 33 591 0
-559 -33 590 0
-560 33 592 0
-560 -33 591 0
-561 33 593 0
-561 -33 592 0
594 595 596 597 598 599 600 601 602 603 604 605 606 607 608 609 610 611 612 613 614 615 616 617 618 619 620 621 622 623 624 625 626 0
-594 -595 0
-594 -596 0
-594 -597 0
-594 -598 0
-594 -599 0
-594 -600 0
-594 -601 0
-594 -602 0
-594 -603 0
-594 -604 0
-594 -605 0
-594 -606 0
-594 -607 0
-594 -608 0
-594 -609 0
-594 -610 0
-594 -611 0
-594 -612 0
-594 -613 0
-594 -614 0
-594 -615 0
-594 -616 0
-594 -617 0
-594 -618 0
-594 -619 0
-594 -620 0
-594 -621 0
-594 -622 0
-594 -623 0
-594 -624 0
-594 -625 0
-594 -626 0
-595 -596 0
-595 -597 0
-595 -598 0
-595 -599 0
-595 -600 0
-595 -601 0
-595 -602 0
-595 -603 0
-595 -604 0
-595 -605 0
-595 -606 0
-595 -607 0
-595 -608 0
-595 -609 0
-595 -610 0
-595 -611 0
-595 -612 0
-595 -613 0
-595 -614 0
-595 -615 0
-595 -616 0
-595 -617 0
-595 -618 0
-595 -619 0
-595 -620 0
-595 -621 0
-595 -622 0
-595 -623 0
-595 -624 0
-595 -625 0
-595 -626 0
-596 -597 0
-596 -598 0
-596 -599 0
-596 -600 0
-596 -601 0
-596 -602 0
-596 -603 0
-596 -604 0
-596 -605 0
-596 -606 0
-596 -607 0
-596 -608 0
-596 -609 0
-596 -610 0
-596 -611 0
-596 -612 0
-596 -613 0
-596 -614 0
-596 -615 0
-596 -616 0
-596 -617 0
-596 -618 0
-596 -619 0
-596 -620 0
-596 -621 0
-596 -622 0
-596 -623 0
-596 -624 0
-596 -625 0
-596 -626 0
-597 -598 0
-597 -599 0
-597 -600 0
-597 -601 0
-597 -602 0
-597 -603 0
-597 -604 0
-597 -605 0
-597 -606 0
-597 -607 0
-597 -608 0
-597 -609 0
-597 -610 0
-597 -611 0
-597 -612 0
-597 -613 0
-597 -614 0
-597 -615 0
-597 -616 0
-597 -617 0
-597 -618 0
-597 -619 0
-597 -620 0
-597 -621 0
-597 -622 0
-597 -623 0
-597 -624 0
-597 -625 0
-597 -626 0
-598 -599 0
-598 -600 0
-598 -601 0
-598 -602 0
-598 -603 0
-598 -604 0
-598 -605 0
-598 -606 0
-598 -607 0
-598 -608 0
-598 -609 0
-598 -610 0
-598 -611 0
-598 -612 0
-598 -613 0
-598 -614 0
-598 -615 0
-598 -616 0
-598 -617 0
-598 -618 0
-598 -619 0
-598 -620 0
-598 -621 0
-598 -622 0
-598 -623 0
-598 -624 0
-598 -625 0
-598 -626 0
-599 -600 0
-599 -601 0
-599 -602 0
-599 -603 0
-599 -604 0
-599 -605 0
-599 -606 0
-599 -607 0
-599 -608 0
-599 -609 0
-599 -610 0
-599 -611 0
-599 -612 0
-599 -613 0
-599 -614 0
-599 -615 0
-599 -616 0
-599 -617 0
-599 -618 0
-599 -619 0
-599 -620 0
-599 -621 0
-599 -622 0
-599 -623 0
-599 -624 0
-599 -625 0
-599 -626 0
-600 -601 0
-600 -602 0
-600 -603 0
-600 -604 0
-600 -605 0
-600 -606 0
-600 -607 0
-600 -608 0
-600 -609 0
-600 -610 0
-600 -611 0
-600 -612 0
-600 -613 0
-600 -614 0
-600 -615 0
-600 -616 0
-600 -617 0
-600 -618 0
-600 -619 0
-600 -620 0
-600 -621 0
-600 -622 0
-600 -623 0
-600 -624 0
-600 -625 0
-600 -626 0
-601 -602 0
-601 -603 0
-601 -604 0
-601 -605 0
-601 -606 0
-601 -607 0
-601 -608 0
-601 -609 0
-601 -610 0
-601 -611 0
-601 -612 0
-601 -613 0
-601 -614 0
-601 -615 0
-601 -616 0
-601 -617 0
-601 -618 0
-601 -619 0
-601 -620 0
-601 -621 0
-601 -622 0
-601 -623 0
-601 -624 0
-601 -625 0
-601 -626 0
-602 -603 0
-602 -604 0
-602 -605 0
-602 -606 0
-602 -607 0
-602 -608 0
-602 -609 0
-602 -610 0
-602 -611 0
-602 -612 0
-602 -613 0
-602 -614 0
-602 -615 0
-602 -616 0
-602 -617 0
-602 -618 0
-602 -619 0
-602 -620 0
-602 -621 0
-602 -622 0
-602 -623 0
-602 -624 0
-602 -625 0
-602 -626 0
-603 -604 0
-603 -605 0
-603 -606 0
-603 -607 0
-603 -608 0
-603 -609 0
-603 -610 0
-603 -611 0
-603 -612 0
-603 -613 0
-603 -614 0
-603 -615 0
-603 -616 0
-603 -617 0
-603 -618 0
-603 -619 0
-603 -620 0
-603 -621 0
-603 -622 0
-603 -623 0
-603 -624 0
-603 -625 0
-603 -626 0
-604 -605 0
-604 -606 0
-604 -607 0
-604 -608 0
-604 -609 0
-604 -610 0
-604 -611 0
-604 -612 0
-604 -613 0
-604 -614 0
-604 -615 0
-604 -616 0
-604 -617 0
-604 -618 0
-604 -619 0
-604 -620 0
-604 -621 0
-604 -622 0
-604 -623 0
-604 -624 0
-604 -625 0
-604 -626 0
-605 -606 0
-605 -607 0
-605 -608 0
-605 -609 0
-605 -610 0
-605 -611 0
-605 -612 0
-605 -613 0
-605 -614 0
-605 -615 0
-605 -616 0
-605 -617 0
-605 -618 0
-605 -619 0
-605 -620 0
-605 -621 0
-605 -622 0
-605 -623 0
-605 -624 0
-605 -625 0
-605 -626 0
-606 -607 0
-606 -608 0
-606 -609 0
-606 -610 0
-606 -611 0
-606 -612 0
-606 -613 0
-606 -614 0
-606 -615 0
-606 -616 0
-606 -617 0
-606 -618 0
-606 -619 0
-606 -620 0
-606 -621 0
-606 -622 0
-606 -623 0
-606 -624 0
-606 -625 0
-606 -626 0
-607 -608 0
-607 -609 0
-607 -610 0
-607 -611 0
-607 -612 0
-607 -613 0
-607 -614 0
-607 -615 0
-607 -616 0
-607 -617 0
-607 -618 0
-607 -619 0
-607 -620 0
-607 -621 0
-607 -622 0
-607 -623 0
-607 -624 0
-607 -625 0
-607 -626 0
-608 -609 0
-608 -610 0
-608 -611 0
-608 -612 0
-608 -613 0
-608 -614 0
-608 -615 0
-608 -616 0
-608 -617 0
-608 -618 0
-608 -619 0
-608 -620 0
-608 -621 0
-608 -622 0
-608 -623 0
-608 -624 0
-608 -625 0
-608 -626 0
-609 -610 0
-609 -611 0
-609 -612 0
-609 -613 0
-609 -614 0
-609 -615 0
-609 -616 0
-609 -617 0
-609 -618 0
-609 -619 0
-609 -620 0
-609 -621 0
-609 -622 0
-609 -623 0
-609 -624 0
-609 -625 0
-609 -626 0
-610 -611 0
-610 -612 0
-610 -613 0
-610 -614 0
-610 -615 0
-610 -616 0
-610 -617 0
-610 -618 0
-610 -619 0
-610 -620 0
-610 -621 0
-610 -622 0
-610 -623 0
-610 -624 0
-610 -625 0
-610 -626 0
-611 -612 0
-611 -613 0
-611 -614 0
-611 -615 0
-611 -616 0
-611 -617 0
-611 -618 0
-611 -619 0
-611 -620 0
-611 -621 0
-611 -622 0
-611 -623 0
-611 -624 0
-611 -625 0
-611 -626 0
-612 -613 0
-612 -614 0
-612 -615 0
-612 -616 0
-612 -617 0
-612 -618 0
-612 -619 0
-612 -620 0
-612 -621 0
-612 -622 0
-612 -623 0
-612 -624 0
-612 -625 0
-612 -626 0
-613 -614 0
-613 -615 0
-613 -616 0
-613 -617 0
-613 -618 0
-613 -619 0
-613 -620 0
-613 -621 0
-613 -622 0
-613 -623 0
-613 -624 0
-613 -625 0
-613 -626 0
-614 -615 0
-614 -616 0
-614 -617 0
-614 -618 0
-614 -619 0
-614 -620 0
-614 -621 0
-614 -622 0
-614 -623 0
-614 -624 0
-614 -625 0
-614 -626 0
-615 -616 0
-615 -617 0
-615 -618 0
-615 -619 0
-615 -620 0
-615 -621 0
-615 -622 0
-615 -623 0
-615 -624 0
-615 -625 0
-615 -626 0
-616 -617 0
-616 -618 0
-616 -619 0
-616 -620 0
-616 -621 0
-616 -622 0
-616 -623 0
-616 -624 0
-616 -625 0
-616 -626 0
-617 -618 0
-617 -619 0
-617 -620 0
-617 -621 0
-617 -622 0
-617 -623 0
-617 -624 0
-617 -625 0
-617 -626 0
-618 -619 0
-618 -620 0
-618 -621 0
-618 -622 0
-618 -623 0
-618 -624 0
-618 -625 0
-618 -626 0
-619 -620 0
-619 -621 0
-619 -622 0
-619 -623 0
-619 -624 0
-619 -625 0
-619 -626 0
-620 -621 0
-620 -622 0
-620 -623 0
-620 -624 0
-620 -625 0
-620 -626 0
-621 -622 0
-621 -623 0
-621 -624 0
-621 -625 0
-621 -626 0
-622 -623 0
-622 -624 0
-622 -625 0
-622 -626 0
-623 -624 0
-623 -625 0
-623 -626 0
-624 -625 0
-624 -626 0
-625 -626 0
-562 36 595 0
-562 -36 594 0
-563 36 596 0
-563 -36 595 0
-564 36 597 0
-564 -36 596 0
-565 36 598 0
-565 -36 597 0
-566 36 599 0
-566 -36 598 0
-567 36 600 0
-567 -36 599 0
-568 36 601 0
-568 -36 600 0
-569 36 602 0
-569 -36 601 0
-570 36 603 0
-570 -36 602 0
-571 36 604 0
-571 -36 603 0
-572 36 605 0
-572 -36 604 0
-573 36 606 0
-573 -36 605 0
-574 36 607 0
-574 -36 606 0
-575 36 608 0
-575 -36 607 0
-576 36 609 0
-576 -36 608 0
-577 36 610 0
-577 -36 609 0
-578 36 611 0
-578 -36 610 0
-579 36 612 0
-579 -36 611 0
-580 36 613 0
-580 -36 612 0
-581 36 614 0
-581 -36 613 0
-582 36 615 0
-582 -36 614 0
-583 36 616 0
-583 -36 615 0
-584 36 617 0
-584 -36 616 0
-585 36 618 0
-585 -36 617 0
-586 36 619 0
-586 -36 618 0
-587 36 620 0
-587 -36 619 0
-588 36 621 0
-588 -36 620 0
-589 36 622 0
-589 -36 621 0
-590 36 623 0
-590 -36 622 0
-591 36 624 0
-591 -36 623 0
-592 36 625 0
-592 -36 624 0
-593 36 626 0
-593 -36 625 0
627 628 629 630 631 632 633 634 635 636 637 638 639 640 641 642 643 644 645 646 647 648 649 650 651 652 653 654 655 656 657 658 659 660 0
-627 -628 0
-627 -629 0
-627 -630 0
-627 -631 0
-627 -632 0
-627 -633 0
-627 -634 0
-627 -635 0
-627 -636 0
-627 -637 0
-627 -638 0
-627 -639 0
-627 -640 0
-627 -641 0
-627 -642 0
-627 -643 0
-627 -644 0
-627 -645 0
-627 -646 0
-627 -647 0
-627 -648 0
-627 -649 0
-627 -650 0
-627 -651 0
-627 -652 0
-627 -653 0
-627 -654 0
-627 -655 0
-627 -656 0
-627 -657 0
-627 -658 0
-627 -659 0
-627 -660 0
-628 -629 0
-628 -630 0
-628 -631 0
-628 -632 0
-628 -633 0
-628 -634 0
-628 -635 0
-628 -636 0
-628 -637 0
-628 -638 0
-628 -639 0
-628 -640 0
-628 -641 0
-628 -642 0
-628 -643 0
-628 -644 0
-628 -645 0
-628 -646 0
-628 -647 0
-628 -648 0
-628 -649 0
-628 -650 0
-628 -651 0
-628 -652 0
-628 -653 0
-628 -654 0
-628 -655 0
-628 -656 0
-628 -657 0
-628 -658 0
-628 -659 0
-628 -660 0
-629 -630 0
-629 -631 0
-629 -632 0
-629 -633 0
-629 -634 0
-629 -635 0
-629 -636 0
-629 -637 0
-629 -638 0
-629 -639 0
-629 -640 0
-629 -641 0
-629 -642 0
-629 -643 0
-629 -644 0
-629 -645 0
-629 -646 0
-629 -647 0
-629 -648 0
-629 -649 0
-629 -650 0
-629 -651 0
-629 -652 0
-629 -653 0
-629 -654 0
-629 -655 0
-629 -656 0
-629 -657 0
-629 -658 0
-629 -659 0
-629 -660 0
-630 -631 0
-630 -632 0
-630 -633 0
-630 -634 0
-630 -635 0
-630 -636 0
-630 -637 0
-630 -638 0
-630 -639 0
-630 -640 0
-630 -641 0
-630 -642 0
-630 -643 0
-630 -644 0
-630 -645 0
-630 -646 0
-630 -647 0
-630 -648 0
-630 -649 0
-630 -650 0
-630 -651 0
-630 -652 0
-630 -653 0
-630 -654 0
-630 -655 0
-630 -656 0
-630 -657 0
-630 -658 0
-630 -659 0
-630 -660 0
-631 -632 0
-631 -633 0
-631 -634 0
-631 -635 0
-631 -636 0
-631 -637 0
-631 -638 0
-631 -639 0
-631 -640 0
-631 -641 0
-631 -642 0
-631 -643 0
-631 -644 0
-631 -645 0
-631 -646 0
-631 -647 0
-631 -648 0
-631 -649 0
-631 -650 0
-631 -651 0
-631 -652 0
-631 -653 0
-631 -654 0
-631 -655 0
-631 -656 0
-631 -657 0
-631 -658 0
-631 -659 0
-631 -660 0
-632 -633 0
-632 -634 0
-632 -635 0
-632 -636 0
-632 -637 0
-632 -638 0
-632 -639 0
-632 -640 0
-632 -641 0
-632 -642 0
-632 -643 0
-632 -644 0
-632 -645 0
-632 -646 0
-632 -647 0
-632 -648 0
-632 -649 0
-632 -650 0
-632 -651 0
-632 -652 0
-632 -653 0
-632 -654 0
-632 -655 0
-632 -656 0
-632 -657 0
-632 -658 0
-632 -659 0
-632 -660 0
-633 -634 0
-633 -635 0
-633 -636 0
-633 -637 0
-633 -638 0
-633 -639 0
-633 -640 0
-633 -641 0
-633 -642 0
-633 -643 0
-633 -644 0
-633 -645 0
-633 -646 0
-633 -647 0
-633 -648 0
-633 -649 0
-633 -650 0
-633 -651 0
-633 -652 0
-633 -653 0
-633 -654 0
-633 -655 0
-633 -656 0
-633 -657 0
-633 -658 0
-633 -659 0
-633 -660 0
-634 -635 0
-634 -636 0
-634 -637 0
-634 -638 0
-634 -639 0
-634 -640 0
-634 -641 0
-634 -642 0
-634 -643 0
-634 -644 0
-634 -645 0
-634 -646 0
-634 -647 0
-634 -648 0
-634 -649 0
-634 -650 0
-634 -651 0
-634 -652 0
-634 -653 0
-634 -654 0
-634 -655 0
-634 -656 0
-634 -657 0
-634 -658 0
-634 -659 0
-634 -660 0
-635 -636 0
-635 -637 0
-635 -638 0
-635 -639 0
-635 -640 0
-635 -641 0
-635 -642 0
-635 -643 0
-635 -644 0
-635 -645 0
-635 -646 0
-635 -647 0
-635 -648 0
-635 -649 0
-635 -650 0
-635 -651 0
-635 -652 0
-635 -653 0
-635 -654 0
-635 -655 0
-635 -656 0
-635 -657 0
-635 -658 0
-635 -659 0
-635 -660 0
-636 -637 0
-636 -638 0
-636 -639 0
-636 -640 0
-636 -641 0
-636 -642 0
-636 -643 0
-636 -644 0
-636 -645 0
-636 -646 0
-636 -647 0
-636 -648 0
-636 -649 0
-636 -650 0
-636 -651 0
-636 -652 0
-636 -653 0
-636 -654 0
-636 -655 0
-636 -656 0
-636 -657 0
-636 -658 0
-636 -659 0
-636 -660 0
-637 -638 0
-637 -639 0
-637 -640 0
-637 -641 0
-637 -642 0
-637 -643 0
-637 -644 0
-637 -645 0
-637 -646 0
-637 -647 0
-637 -648 0
-637 -649 0
-637 -650 0
-637 -651 0
-637 -652 0
-637 -653 0
-637 -654 0
-637 -655 0
-637 -656 0
-637 -657 0
-637 -658 0
-637 -659 0
-637 -660 0
-638 -639 0
-638 -640 0
-638 -641 0
-638 -642 0
-638 -643 0
-638 -644 0
-638 -645 0
-638 -646 0
-638 -647 0
-638 -648 0
-638 -649 0
-638 -650 0
-638 -651 0
-638 -652 0
-638 -653 0
-638 -654 0
-638 -655 0
-638 -656 0
-638 -657 0
-638 -658 0
-638 -659 0
-638 -660 0
-639 -640 0
-639 -641 0
-639 -642 0
-639 -643 0
-639 -644 0
-639 -645 0
-639 -646 0
-639 -647 0
-639 -648 0
-639 -649 0
-639 -650 0
-639 -651 0
-639 -652 0
-639 -653 0
-639 -654 0
-639 -655 0
-639 -656 0
-639 -657 0
-639 -658 0
-639 -659 0
-639 -660 0
-640 -641 0
-640 -642 0
-640 -643 0
-640 -644 0
-640 -645 0
-640 -646 0
-640 -647 0
-640 -648 0
-640 -649 0
-640 -650 0
-640 -651 0
-640 -652 0
-640 -653 0
-640 -654 0
-640 -655 0
-640 -656 0
-640 -657 0
-640 -658 0
-640 -659 0
-640 -660 0
-641 -642 0
-641 -643 0
-641 -644 0
-641 -645 0
-641 -646 0
-641 -647 0
-641 -648 0
-641 -649 0
-641 -650 0
-641 -651 0
-641 -652 0
-641 -653 0
-641 -654 0
-641 -655 0
-641 -656 0
-641 -657 0
-641 -658 0
-641 -659 0
-641 -660 0
-642 -643 0
-642 -644 0
-642 -645 0
-642 -646 0
-642 -647 0
-642 -648 0
-642 -649 0
-642 -650 0
-642 -651 0
-642 -652 0
-642 -653 0
-642 -654 0
-642 -655 0
-642 -656 0
-642 -657 0
-642 -658 0
-642 -659 0
-642 -660 0
-643 -644 0
-643 -645 0
-643 -646 0
-643 -647 0
-643 -648 0
-643 -649 0
-643 -650 0
-643 -651 0
-643 -652 0
-643 -653 0
-643 -654 0
-643 -655 0
-643 -656 0
-643 -657 0
-643 -658 0
-643 -659 0
-643 -660 0
-644 -645 0
-644 -646 0
-644 -647 0
-644 -648 0
-644 -649 0
-644 -650 0
-644 -651 0
-644 -652 0
-644 -653 0
-644 -654 0
-644 -655 0
-644 -656 0
-644 -657 0
-644 -658 0
-644 -659 0
-644 -660 0
-645 -646 0
-645 -647 0
-645 -648 0
-645 -649 0
-645 -650 0
-645 -651 0
-645 -652 0
-645 -653 0
-645 -654 0
-645 -655 0
-645 -656 0
-645 -657 0
-645 -658 0
-645 -659 0
-645 -660 0
-646 -647 0
-646 -648 0
-646 -649 0
-646 -650 0
-646 -651 0
-646 -652 0
-646 -653 0
-646 -654 0
-646 -655 0
-646 -656 0
-646 -657 0
-646 -658 0
-646 -659 0
-646 -660 0
-647 -648 0
-647 -649 0
-647 -650 0
-647 -651 0
-647 -652 0
-647 -653 0
-647 -654 0
-647 -655 0
-647 -656 0
-647 -657 0
-647 -658 0
-647 -659 0
-647 -660 0
-648 -649 0
-648 -650 0
-648 -651 0
-648 -652 0
-648 -653 0
-648 -654 0
-648 -655 0
-648 -656 0
-648 -657 0
-648 -658 0
-648 -659 0
-648 -660 0
-649 -650 0
-649 -651 0
-649 -652 0
-649 -653 0
-649 -654 0
-649 -655 0
-649 -656 0
-649 -657 0
-649 -658 0
-649 -659 0
-649 -660 0
-650 -651 0
-650 -652 0
-650 -653 0
-650 -654 0
-650 -655 0
-650 -656 0
-650 -657 0
-650 -658 0
-650 -659 0
-650 -660 0
-651 -652 0
-651 -653 0
-651 -654 0
-651 -655 0
-651 -656 0
-651 -657 0
-651 -658 0
-651 -659 0
-651 -660 0
-652 -653 0
-652 -654 0
-652 -655 0
-652 -656 0
-652 -657 0
-652 -658 0
-652 -659 0
-652 -660 0
-653 -654 0
-653 -655 0
-653 -656 0
-653 -657 0
-653 -658 0
-653 -659 0
-653 -660 0
-654 -655 0
-654 -656 0
-654 -657 0
-654 -658 0
-654 -659 0
-654 -660 0
-655 -656 0
-655 -657 0
-655 -658 0
-655 -659 0
-655 -660 0
-656 -657 0
-656 -658 0
-656 -659 0
-656 -660 0
-657 -658 0
-657 -659 0
-657 -660 0
-658 -659 0
-658 -660 0
-659 -660 0
-594 39 628 0
-594 -39 627 0
-595 39 629 0
-595 -39 628 0
-596 39 630 0
-596 -39 629 0
-597 39 631 0
-597 -39 630 0
-598 39 632 0
-598 -39 631 0
-599 39 633 0
-599 -39 632 0
-600 39 634 0
-600 -39 633 0
-601 39 635 0
-601 -39 634 0
-602 39 636 0
-602 -39 635 0
-603 39 637 0
-603 -39 636 0
-604 39 638 0
-604 -39 637 0
-605 39 639 0
-605 -39 638 0
-606 39 640 0
-606 -39 639 0
-607 39 641 0
-607 -39 640 0
-608 39 642 0
-608 -39 641 0
-609 39 643 0
-609 -39 642 0
-610 39 644 0
-610 -39 643 0
-611 39 645 0
-611 -39 644 0
-612 39 646 0
-612 -39 645 0
-613 39 647 0
-613 -39 646 0
-614 39 648 0
-614 -39 647 0
-615 39 649 0
-615 -39 648 0
-616 39 650 0
-616 -39 649 0
-617 39 651 0
-617 -39 650 0
-618 39 652 0
-618 -39 651 0
-619 39 653 0
-619 -39 652 0
-620 39 654 0
-620 -39 653 0
-621 39 655 0
-621 -39 654 0
-622 39 656 0
-622 -39 655 0
-623 39 657 0
-623 -39 656 0
-624 39 658 0
-624 -39 657 0
-625 39 659 0
-625 -39 658 0
-626 39 660 0
-626 -39 659 0
661 662 663 664 665 666 667 668 669 670 671 672 673 674 675 676 677 678 679 680 681 682 683 684 685 686 687 688 689 690 691 692 693 694 695 0
-661 -662 0
-661 -663 0
-661 -664 0
-661 -665 0
-661 -666 0
-661 -667 0
-661 -668 0
-661 -669 0
-661 -670 0
-661 -671 0
-661 -672 0
-661 -673 0
-661 -674 0
-661 -675 0
-661 -676 0
-661 -677 0
-661 -678 0
-661 -679 0
-661 -680 0
-661 -681 0
-661 -682 0
-661 -683 0
-661 -684 0
-661 -685 0
-661 -686 0
-661 -687 0
-661 -688 0
-661 -689 0
-661 -690 0
-661 -691 0
-661 -692 0
-661 -693 0
-661 -694 0
-661 -695 0
-662 -663 0
-662 -664 0
-662 -665 0
-662 -666 0
-662 -667 0
-662 -668 0
-662 -669 0
-662 -670 0
-662 -671 0
-662 -672 0
-662 -673 0
-662 -674 0
-662 -675 0
-662 -676 0
-662 -677 0
-662 -678 0
-662 -679 0
-662 -680 0
-662 -681 0
-662 -682 0
-662 -683 0
-662 -684 0
-662 -685 0
-662 -686 0
-662 -687 0
-662 -688 0
-662 -689 0
-662 -690 0
-662 -691 0
-662 -692 0
-662 -693 0
-662 -694 0
-662 -695 0
-663 -664 0
-663 -665 0
-663 -666 0
-663 -667 0
-663 -668 0
-663 -669 0
-663 -670 0
-663 -671 0
-663 -672 0
-663 -673 0
-663 -674 0
-663 -675 0
-663 -676 0
-663 -677 0
-663 -678 0
-663 -679 0
-663 -680 0
-663 -681 0
-663 -682 0
-663 -683 0
-663 -684 0
-663 -685 0
-663 -686 0
-663 -687 0
-663 -688 0
-663 -689 0
-663 -690 0
-663 -691 0
-663 -692 0
-663 -693 0
-663 -694 0
-663 -695 0
-664 -665 0
-664 -666 0
-664 -667 0
-664 -668 0
-664 -669 0
-664 -670 0
-664 -671 0
-664 -672 0
-664 -673 0
-664 -674 0
-664 -675 0
-664 -676 0
-664 -677 0
-664 -678 0
-664 -679 0
-664 -680 0
-664 -681 0
-664 -682 0
-664 -683 0
-664 -684 0
-664 -685 0
-664 -686 0
-664 -687 0
-664 -688 0
-664 -689 0
-664 -690 0
-664 -691 0
-664 -692 0
-664 -693 0
-664 -694 0
-664 -695 0
-665 -666 0
-665 -667 0
-665 -668 0
-665 -669 0
-665 -670 0
-665 -671 0
-665 -672 0
-665 -673 0
-665 -674 0
-665 -675 0
-665 -676 0
-665 -677 0
-665 -678 0
-665 -679 0
-665 -680 0
-665 -681 0
-665 -682 0
-665 -683 0
-665 -684 0
-665 -685 0
-665 -686 0
-665 -687 0
-665 -688 0
-665 -689 0
-665 -690 0
-665 -691 0
-665 -692 0
-665 -693 0
-665 -694 0
-665 -695 0
-666 -667 0
-666 -668 0
-666 -669 0
-666 -670 0
-666 -671 0
-666 -672 0
-666 -673 0
-666 -674 0
-666 -675 0
-666 -676 0
-666 -677 0
-666 -678 0
-666 -679 0
-666 -680 0
-666 -681 0
-666 -682 0
-666 -683 0
-666 -684 0
-666 -685 0
-666 -686 0
-666 -687 0
-666 -688 0
-666 -689 0
-666 -690 0
-666 -691 0
-666 -692 0
-666 -693 0
-666 -694 0
-666 -695 0
-667 -668 0
-667 -669 0
-667 -670 0
-667 -671 0
-667 -672 0
-667 -673 0
-667 -674 0
-667 -675 0
-667 -676 0
-667 -677 0
-667 -678 0
-667 -679 0
-667 -680 0
-667 -681 0
-667 -682 0
-667 -683 0
-667 -684 0
-667 -685 0
-667 -686 0
-667 -687 0
-667 -688 0
-667 -689 0
-667 -690 0
-667 -691 0
-667 -692 0
-667 -693 0
-667 -694 0
-667 -695 0
-668 -669 0
-668 -670 0
-668 -671 0
-668 -672 0
-668 -673 0
-668 -674 0
-668 -675 0
-668 -676 0
-668 -677 0
-668 -678 0
-668 -679 0
-668 -680 0
-668 -681 0
-668 -682 0
-668 -683 0
-668 -684 0
-668 -685 0
-668 -686 0
-668 -687 0
-668 -688 0
-668 -689 0
-668 -690 0
-668 -691 0
-668 -692 0
-668 -693 0
-668 -694 0
-668 -695 0
-669 -670 0
-669 -671 0
-669 -672 0
-669 -673 0
-669 -674 0
-669 -675 0
-669 -676 0
-669 -677 0
-669 -678 0
-669 -679 0
-669 -680 0
-669 -681 0
-669 -682 0
-669 -683 0
-669 -684 0
-669 -685 0
-669 -686 0
-669 -687 0
-669 -688 0
-669 -689 0
-669 -690 0
-669 -691 0
-669 -692 0
-669 -693 0
-669 -694 0
-669 -695 0
-670 -671 0
-670 -672 0
-670 -673 0
-670 -674 0
-670 -675 0
-670 -676 0
-670 -677 0
-670 -678 0
-670 -679 0
-670 -680 0
-670 -681 0
-670 -682 0
-670 -683 0
-670 -684 0
-670 -685 0
-670 -686 0
-670 -687 0
-670 -688 0
-670 -689 0
-670 -690 0
-670 -691 0
-670 -692 0
-670 -693 0
-670 -694 0
-670 -695 0
-671 -672 0
-671 -673 0
-671 -674 0
-671 -675 0
-671 -676 0
-671 -677 0
-671 -678 0
-671 -679 0
-671 -680 0
-671 -681 0
-671 -682 0
-671 -683 0
-671 -684 0
-671 -685 0
-671 -686 0
-671 -687 0
-671 -688 0
-671 -689 0
-671 -690 0
-671 -691 0
-671 -692 0
-671 -693 0
-671 -694 0
-671 -695 0
-672 -673 0
-672 -674 0
-672 -675 0
-672 -676 0
-672 -677 0
-672 -678 0
-672 -679 0
-672 -680 0
-672 -681 0
-672 -682 0
-672 -683 0
-672 -684 0
-672 -685 0
-672 -686 0
-672 -687 0
-672 -688 0
-672 -689 0
-672 -690 0
-672 -691 0
-672 -692 0
-672 -693 0
-672 -694 0
-672 -695 0
-673 -674 0
-673 -675 0
-673 -676 0
-673 -677 0
-673 -678 0
-673 -679 0
-673 -680 0
-673 -681 0
-673 -682 0
-673 -683 0
-673 -684 0
-673 -685 0
-673 -686 0
-673 -687 0
-673 -688 0
-673 -689 0
-673 -690 0
-673 -691 0
-673 -692 0
-673 -693 0
-673 -694 0
-673 -695 0
-674 -675 0
-674 -676 0
-674 -677 0
-674 -678 0
-674 -679 0
-674 -680 0
-674 -681 0
-674 -682 0
-674 -683 0
-674 -684 0
-674 -685 0
-674 -686 0
-674 -687 0
-674 -688 0
-674 -689 0
-674 -690 0
-674 -691 0
-674 -692 0
-674 -693 0
-674 -694 0
-674 -695 0
-675 -676 0
-675 -677 0
-675 -678 0
-675 -679 0
-675 -680 0
-675 -681 0
-675 -682 0
-675 -683 0
-675 -684 0
-675 -685 0
-675 -686 0
-675 -687 0
-675 -688 0
-675 -689 0
-675 -690 0
-675 -691 0
-675 -692 0
-675 -693 0
-675 -694 0
-675 -695 0
-676 -677 0
-676 -678 0
-676 -679 0
-676 -680 0
-676 -681 0
-676 -682 0
-676 -683 0
-676 -684 0
-676 -685 0
-676 -686 0
-676 -687 0
-676 -688 0
-676 -689 0
-676 -690 0
-676 -691 0
-676 -692 0
-676 -693 0
-676 -694 0
-676 -695 0
-677 -678 0
-677 -679 0
-677 -680 0
-677 -681 0
-677 -682 0
-677 -683 0
-677 -684 0
-677 -685 0
-677 -686 0
-677 -687 0
-677 -688 0
-677 -689 0
-677 -690 0
-677 -691 0
-677 -692 0
-677 -693 0
-677 -694 0
-677 -695 0
-678 -679 0
-678 -680 0
-678 -681 0
-678 -682 0
-678 -683 0
-678 -684 0
-678 -685 0
-678 -686 0
-678 -687 0
-678 -688 0
-678 -689 0
-678 -690 0
-678 -691 0
-678 -692 0
-678 -693 0
-678 -694 0
-678 -695 0
-679 -680 0
-679 -681 0
-679 -682 0
-679 -683 0
-679 -684 0
-679 -685 0
-679 -686 0
-679 -687 0
-679 -688 0
-679 -689 0
-679 -690 0
-679 -691 0
-679 -692 0
-679 -693 0
-679 -694 0
-679 -695 0
-680 -681 0
-680 -682 0
-680 -683 0
-680 -684 0
-680 -685 0
-680 -686 0
-680 -687 0
-680 -688 0
-680 -689 0
-680 -690 0
-680 -691 0
-680 -692 0
-680 -693 0
-680 -694 0
-680 -695 0
-681 -682 0
-681 -683 0
-681 -684 0
-681 -685 0
-681 -686 0
-681 -687 0
-681 -688 0
-681 -689 0
-681 -690 0
-681 -691 0
-681 -692 0
-681 -693 0
-681 -694 0
-681 -695 0
-682 -683 0
-682 -684 0
-682 -685 0
-682 -686 0
-682 -687 0
-682 -688 0
-682 -689 0
-682 -690 0
-682 -691 0
-682 -692 0
-682 -693 0
-682 -694 0
-682 -695 0
-683 -684 0
-683 -685 0
-683 -686 0
-683 -687 0
-683 -688 0
-683 -689 0
-683 -690 0
-683 -691 0
-683 -692 0
-683 -693 0
-683 -694 0
-683 -695 0
-684 -685 0
-684 -686 0
-684 -687 0
-684 -688 0
-684 -689 0
-684 -690 0
-684 -691 0
-684 -692 0
-684 -693 0
-684 -694 0
-684 -695 0
-685 -686 0
-685 -687 0
-685 -688 0
-685 -689 0
-685 -690 0
-685 -691 0
-685 -692 0
-685 -693 0
-685 -694 0
-685 -695 0
-686 -687 0
-686 -688 0
-686 -689 0
-686 -690 0
-686 -691 0
-686 -692 0
-686 -693 0
-686 -694 0
-686 -695 0
-687 -688 0
-687 -689 0
-687 -690 0
-687 -691 0
-687 -692 0
-687 -693 0
-687 -694 0
-687 -695 0
-688 -689 0
-688 -690 0
-688 -691 0
-688 -692 0
-688 -693 0
-688 -694 0
-688 -695 0
-689 -690 0
-689 -691 0
-689 -692 0
-689 -693 0
-689 -694 0
-689 -695 0
-690 -691 0
-690 -692 0
-690 -693 0
-690 -694 0
-690 -695 0
-691 -692 0
-691 -693 0
-691 -694 0
-691 -695 0
-692 -693 0
-692 -694 0
-692 -695 0
-693 -694 0
-693 -695 0
-694 -695 0
-627 42 662 0
-627 -42 661 0
-628 42 663 0
-628 -42 662 0
-629 42 664 0
-629 -42 663 0
-630 42 665 0
-630 -42 664 0
-631 42 666 0
-631 -42 665 0
-632 42 667 0
-632 -42 666 0
-633 42 668 0
-633 -42 667 0
-634 42 669 0
-634 -42 668 0
-635 42 670 0
-635 -42 669 0
-636 42 671 0
-636 -42 670 0
-637 42 672 0
-637 -42 671 0
-638 42 673 0
-638 -42 672 0
-639 42 674 0
-639 -42 673 0
-640 42 675 0
-640 -42 674 0
-641 42 676 0
-641 -42 675 0
-642 42 677 0
-642 -42 676 0
-643 42 678 0
-643 -42 677 0
-644 42 679 0
-644 -42 678 0
-645 42 680 0
-645 -42 679 0
-646 42 681 0
-646 -42 680 0
-647 42 682 0
-647 -42 681 0
-648 42 683 0
-648 -42 682 0
-649 42 684 0
-649 -42 683 0
-650 42 685 0
-650 -42 684 0
-651 42 686 0
-651 -42 685 0
-652 42 687 0
-652 -42 686 0
-653 42 688 0
-653 -42 687 0
-654 42 689 0
-654 -42 688 0
-655 42 690 0
-655 -42 689 0
-656 42 691 0
-656 -42 690 0
-657 42 692 0
-657 -42 691 0
-658 42 693 0
-658 -42 692 0
-659 42 694 0
-659 -42 693 0
-660 42 695 0
-660 -42 694 0
696 697 698 699 700 701 702 703 704 705 706 707 708 709 710 711 712 713 714 715 716 717 718 719 720 721 722 723 724 725 726 727 728 729 730 731 0
-696 -697 0
-696 -698 0
-696 -699 0
-696 -700 0
-696 -701 0
-696 -702 0
-696 -703 0
-696 -704 0
-696 -705 0
-696 -706 0
-696 -707 0
-696 -708 0
-696 -709 0
-696 -710 0
-696 -711 0
-696 -712 0
-696 -713 0
-696 -714 0
-696 -715 0
-696 -716 0
-696 -717 0
-696 -718 0
-696 -719 0
-696 -720 0
-696 -721 0
-696 -722 0
-696 -723 0
-696 -724 0
-696 -725 0
-696 -726 0
-696 -727 0
-696 -728 0
-696 -729 0
-696 -730 0
-696 -731 0
-697 -698 0
-697 -699 0
-697 -700 0
-697 -701 0
-697 -702 0
-697 -703 0
-697 -704 0
-697 -705 0
-697 -706 0
-697 -707 0
-697 -708 0
-697 -709 0
-697 -710 0
-697 -711 0
-697 -712 0
-697 -713 0
-697 -714 0
-697 -715 0
-697 -716 0
-697 -717 0
-697 -718 0
-697 -719 0
-697 -720 0
-697 -721 0
-697 -722 0
-697 -723 0
-697 -724 0
-697 -725 0
-697 -726 0
-697 -727 0
-697 -728 0
-697 -729 0
-697 -730 0
-697 -731 0
-698 -699 0
-698 -700 0
-698 -701 0
-698 -702 0
-698 -703 0
-698 -704 0
-698 -705 0
-698 -706 0
-698 -707 0
-698 -708 0
-698 -709 0
-698 -710 0
-698 -711 0
-698 -712 0
-698 -713 0
-698 -714 0
-698 -715 0
-698 -716 0
-698 -717 0
-698 -718 0
-698 -719 0
-698 -720 0
-698 -721 0
-698 -722 0
-698 -723 0
-698 -724 0
-698 -725 0
-698 -726 0
-698 -727 0
-698 -728 0
-698 -729 0
-698 -730 0
-698 -731 0
-699 -700 0
-699 -701 0
-699 -702 0
-699 -703 0
-699 -704 0
-699 -705 0
-699 -706 0
-699 -707 0
-699 -708 0
-699 -709 0
-699 -710 0
-699 -711 0
-699 -712 0
-699 -713 0
-699 -714 0
-699 -715 0
-699 -716 0
-699 -717 0
-699 -718 0
-699 -719 0
-699 -720 0
-699 -721 0
-699 -722 0
-699 -723 0
-699 -724 0
-699 -725 0
-699 -726 0
-699 -727 0
-699 -728 0
-699 -729 0
-699 -730 0
-699 -731 0
-700 -701 0
-700 -702 0
-700 -703 0
-700 -704 0
-700 -705 0
-700 -706 0
-700 -707 0
-700 -708 0
-700 -709 0
-700 -710 0
-700 -711 0
-700 -712 0
-700 -713 0
-700 -714 0
-700 -715 0
-700 -716 0
-700 -717 0
-700 -718 0
-700 -719 0
-700 -720 0
-700 -721 0
-700 -722 0
-700 -723 0
-700 -724 0
-700 -725 0
-700 -726 0
-700 -727 0
-700 -728 0
-700 -729 0
-700 -730 0
-700 -731 0
-701 -702 0
-701 -703 0
-701 -704 0
-701 -705 0
-701 -706 0
-701 -707 0
-701 -708 0
-701 -709 0
-701 -710 0
-701 -711 0
-701 -712 0
-701 -713 0
-701 -714 0
-701 -715 0
-701 -716 0
-701 -717 0
-701 -718 0
-701 -719 0
-701 -720 0
-701 -721 0
-701 -722 0
-701 -723 0
-701 -724 0
-701 -725 0
-701 -726 0
-701 -727 0
-701 -728 0
-701 -729 0
-701 -730 0
-701 -731 0
-702 -703 0
-702 -704 0
-702 -705 0
-702 -706 0
-702 -707 0
-702 -708 0
-702 -709 0
-702 -710 0
-702 -711 0
-702 -712 0
-702 -713 0
-702 -714 0
-702 -715 0
-702 -716 0
-702 -717 0
-702 -718 0
-702 -719 0
-702 -720 0
-702 -721 0
-702 -722 0
-702 -723 0
-702 -724 0
-702 -725 0
-702 -726 0
-702 -727 0
-702 -728 0
-702 -729 0
-702 -730 0
-702 -731 0
-703 -704 0
-703 -705 0
-703 -706 0
-703 -707 0
-703 -708 0
-703 -709 0
-703 -710 0
-703 -711 0
-703 -712 0
-703 -713 0
-703 -714 0
-703 -715 0
-703 -716 0
-703 -717 0
-703 -718 0
-703 -719 0
-703 -720 0
-703 -721 0
-703 -722 0
-703 -723 0
-703 -724 0
-703 -725 0
-703 -726 0
-703 -727 0
-703 -728 0
-703 -729 0
-703 -730 0
-703 -731 0
-704 -705 0
-704 -706 0
-704 -707 0
-704 -708 0
-704 -709 0
-704 -710 0
-704 -711 0
-704 -712 0
-704 -713 0
-704 -714 0
-704 -715 0
-704 -716 0
-704 -717 0
-704 -718 0
-704 -719 0
-704 -720 0
-704 -721 0
-704 -722 0
-704 -723 0
-704 -724 0
-704 -725 0
-704 -726 0
-704 -727 0
-704 -728 0
-704 -729 0
-704 -730 0
-704 -731 0
-705 -706 0
-705 -707 0
-705 -708 0
-705 -709 0
-705 -710 0
-705 -711 0
-705 -712 0
-705 -713 0
-705 -714 0
-705 -715 0
-705 -716 0
-705 -717 0
-705 -718 0
-705 -719 0
-705 -720 0
-705 -721 0
-705 -722 0
-705 -723 0
-705 -724 0
-705 -725 0
-705 -726 0
-705 -727 0
-705 -728 0
-705 -729 0
-705 -730 0
-705 -731 0
-706 -707 0
-706 -708 0
-706 -709 0
-706 -710 0
-706 -711 0
-706 -712 0
-706 -713 0
-706 -714 0
-706 -715 0
-706 -716 0
-706 -717 0
-706 -718 0
-706 -719 0
-706 -720 0
-706 -721 0
-706 -722 0
-706 -723 0
-706 -724 0
-706 -725 0
-706 -726 0
-706 -727 0
-706 -728 0
-706 -729 0
-706 -730 0
-706 -731 0
-707 -708 0
-707 -709 0
-707 -710 0
-707 -711 0
-707 -712 0
-707 -713 0
-707 -714 0
-707 -715 0
-707 -716 0
-707 -717 0
-707 -718 0
-707 -719 0
-707 -720 0
-707 -721 0
-707 -722 0
-707 -723 0
-707 -724 0
-707 -725 0
-707 -726 0
-707 -727 0
-707 -728 0
-707 -729 0
-707 -730 0
-707 -731 0
-708 -709 0
-708 -710 0
-708 -711 0
-708 -712 0
-708 -713 0
-708 -714 0
-708 -715 0
-708 -716 0
-708 -717 0
-708 -718 0
-708 -719 0
-708 -720 0
-708 -721 0
-708 -722 0
-708 -723 0
-708 -724 0
-708 -725 0
-708 -726 0
-708 -727 0
-708 -728 0
-708 -729 0
-708 -730 0
-708 -731 0
-709 -710 0
-709 -711 0
-709 -712 0
-709 -713 0
-709 -714 0
-709 -715 0
-709 -716 0
-709 -717 0
-709 -718 0
-709 -719 0
-709 -720 0
-709 -721 0
-709 -722 0
-709 -723 0
-709 -724 0
-709 -725 0
-709 -726 0
-709 -727 0
-709 -728 0
-709 -729 0
-709 -730 0
-709 -731 0
-710 -711 0
-710 -712 0
-710 -713 0
-710 -714 0
-710 -715 0
-710 -716 0
-710 -717 0
-710 -718 0
-710 -719 0
-710 -720 0
-710 -721 0
-710 -722 0
-710 -723 0
-710 -724 0
-710 -725 0
-710 -726 0
-710 -727 0
-710 -728 0
-710 -729 0
-710 -730 0
-710 -731 0
-711 -712 0
-711 -713 0
-711 -714 0
-711 -715 0
-711 -716 0
-711 -717 0
-711 -718 0
-711 -719 0
-711 -720 0
-711 -721 0
-711 -722 0
-711 -723 0
-711 -724 0
-711 -725 0
-711 -726 0
-711 -727 0
-711 -728 0
-711 -729 0
-711 -730 0
-711 -731 0
-712 -713 0
-712 -714 0
-712 -715 0
-712 -716 0
-712 -717 0
-712 -718 0
-712 -719 0
-712 -720 0
-712 -721 0
-712 -722 0
-712 -723 0
-712 -724 0
-712 -725 0
-712 -726 0
-712 -727 0
-712 -728 0
-712 -729 0
-712 -730 0
-712 -731 0
-713 -714 0
-713 -715 0
-713 -716 0
-713 -717 0
-713 -718 0
-713 -719 0
-713 -720 0
-713 -721 0
-713 -722 0
-713 -723 0
-713 -724 0
-713 -725 0
-713 -726 0
-713 -727 0
-713 -728 0
-713 -729 0
-713 -730 0
-713 -731 0
-714 -715 0
-714 -716 0
-714 -717 0
-714 -718 0
-714 -719 0
-714 -720 0
-714 -721 0
-714 -722 0
-714 -723 0
-714 -724 0
-714 -725 0
-714 -726 0
-714 -727 0
-714 -728 0
-714 -729 0
-714 -730 0
-714 -731 0
-715 -716 0
-715 -717 0
-715 -718 0
-715 -719 0
-715 -720 0
-715 -721 0
-715 -722 0
-715 -723 0
-715 -724 0
-715 -725 0
-715 -726 0
-715 -727 0
-715 -728 0
-715 -729 0
-715 -730 0
-715 -731 0
-716 -717 0
-716 -718 0
-716 -719 0
-716 -720 0
-716 -721 0
-716 -722 0
-716 -723 0
-716 -724 0
-716 -725 0
-716 -726 0
-716 -727 0
-716 -728 0
-716 -729 0
-716 -730 0
-716 -731 0
-717 -718 0
-717 -719 0
-717 -720 0
-717 -721 0
-717 -722 0
-717 -723 0
-717 -724 0
-717 -725 0
-717 -726 0
-717 -727 0
-717 -728 0
-717 -729 0
-717 -730 0
-717 -731 0
-718 -719 0
-718 -720 0
-718 -721 0
-718 -722 0
-718 -723 0
-718 -724 0
-718 -725 0
-718 -726 0
-718 -727 0
-718 -728 0
-718 -729 0
-718 -730 0
-718 -731 0
-719 -720 0
-719 -721 0
-719 -722 0
-719 -723 0
-719 -724 0
-719 -725 0
-719 -726 0
-719 -727 0
-719 -728 0
-719 -729 0
-719 -730 0
-719 -731 0
-720 -721 0
-720 -722 0
-720 -723 0
-720 -724 0
-720 -725 0
-720 -726 0
-720 -727 0
-720 -728 0
-720 -729 0
-720 -730 0
-720 -731 0
-721 -722 0
-721 -723 0
-721 -724 0
-721 -725 0
-721 -726 0
-721 -727 0
-721 -728 0
-721 -729 0
-721 -730 0
-721 -731 0
-722 -723 0
-722 -724 0
-722 -725 0
-722 -726 0
-722 -727 0
-722 -728 0
-722 -729 0
-722 -730 0
-722 -731 0
-723 -724 0
-723 -725 0
-723 -726 0
-723 -727 0
-723 -728 0
-723 -729 0
-723 -730 0
-723 -731 0
-724 -725 0
-724 -726 0
-724 -727 0
-724 -728 0
-724 -729 0
-724 -730 0
-724 -731 0
-725 -726 0
-725 -727 0
-725 -728 0
-725 -729 0
-725 -730 0
-725 -731 0
-726 -727 0
-726 -728 0
-726 -729 0
-726 -730 0
-726 -731 0
-727 -728 0
-727 -729 0
-727 -730 0
-727 -731 0
-728 -729 0
-728 -730 0
-728 -731 0
-729 -730 0
-729 -731 0
-730 -731 0
-661 45 697 0
-661 -45 696 0
-662 45 698 0
-662 -45 697 0
-663 45 699 0
-663 -45 698 0
-664 45 700 0
-664 -45 699 0
-665 45 701 0
-665 -45 700 0
-666 45 702 0
-666 -45 701 0
-667 45 703 0
-667 -45 702 0
-668 45 704 0
-668 -45 703 0
-669 45 705 0
-669 -45 704 0
-670 45 706 0
-670 -45 705 0
-671 45 707 0
-671 -45 706 0
-672 45 708 0
-672 -45 707 0
-673 45 709 0
-673 -45 708 0
-674 45 710 0
-674 -45 709 0
-675 45 711 0
-675 -45 710 0
-676 45 712 0
-676 -45 711 0
-677 45 713 0
-677 -45 712 0
-678 45 714 0
-678 -45 713 0
-679 45 715 0
-679 -45 714 0
-680 45 716 0
-680 -45 715 0
-681 45 717 0
-681 -45 716 0
-682 45 718 0
-682 -45 717 0
-683 45 719 0
-683 -45 718 0
-684 45 720 0
-684 -45 719 0
-685 45 721 0
-685 -45 720 0
-686 45 722 0
-686 -45 721 0
-687 45 723 0
-687 -45 722 0
-688 45 724 0
-688 -45 723 0
-689 45 725 0
-689 -45 724 0
-690 45 726 0
-690 -45 725 0
-691 45 727 0
-691 -45 726 0
-692 45 728 0
-692 -45 727 0
-693 45 729 0
-693 -45 728 0
-694 45 730 0
-694 -45 729 0
-695 45 731 0
-695 -45 730 0
-712 0
-713 0
-714 0
-715 0
-716 0
-717 0
-718 0
-719 0
-720 0
-721 0
-722 0
-723 0
-724 0
-725 0
-726 0
-727 0
-728 0
-729 0
-730 0
-731 0
