c O--West H_1/enforcer amplifier expansions=0; beta=9
p cnf 192 256
-1 -27 -31 0
-25 -29 -31 0
-1 -29 31 0
-27 -30 31 0
-26 -28 30 0
-25 28 29 0
-26 27 -30 0
26 -28 29 0
25 28 30 0
25 26 27 0
-2 -34 -38 0
-32 -36 -38 0
-2 -36 38 0
-34 -37 38 0
-33 -35 37 0
-32 35 36 0
-33 34 -37 0
33 -35 36 0
32 35 37 0
32 33 34 0
-3 -41 -45 0
-39 -43 -45 0
-3 -43 45 0
-41 -44 45 0
-40 -42 44 0
-39 42 43 0
-40 41 -44 0
40 -42 43 0
39 42 44 0
39 40 41 0
-4 -48 -52 0
-46 -50 -52 0
-4 -50 52 0
-48 -51 52 0
-47 -49 51 0
-46 49 50 0
-47 48 -51 0
47 -49 50 0
46 49 51 0
46 47 48 0
-5 -55 -59 0
-53 -57 -59 0
-5 -57 59 0
-55 -58 59 0
-54 -56 58 0
-53 56 57 0
-54 55 -58 0
54 -56 57 0
53 56 58 0
53 54 55 0
-6 -62 -66 0
-60 -64 -66 0
-6 -64 66 0
-62 -65 66 0
-61 -63 65 0
-60 63 64 0
-61 62 -65 0
61 -63 64 0
60 63 65 0
60 61 62 0
-7 -69 -73 0
-67 -71 -73 0
-7 -71 73 0
-69 -72 73 0
-68 -70 72 0
-67 70 71 0
-68 69 -72 0
68 -70 71 0
67 70 72 0
67 68 69 0
-8 -76 -80 0
-74 -78 -80 0
-8 -78 80 0
-76 -79 80 0
-75 -77 79 0
-74 77 78 0
-75 76 -79 0
75 -77 78 0
74 77 79 0
74 75 76 0
-9 -83 -87 0
-81 -85 -87 0
-9 -85 87 0
-83 -86 87 0
-82 -84 86 0
-81 84 85 0
-82 83 -86 0
82 -84 85 0
81 84 86 0
81 82 83 0
-10 -90 -94 0
-88 -92 -94 0
-10 -92 94 0
-90 -93 94 0
-89 -91 93 0
-88 91 92 0
-89 90 -93 0
89 -91 92 0
88 91 93 0
88 89 90 0
-11 -97 -101 0
-95 -99 -101 0
-11 -99 101 0
-97 -100 101 0
-96 -98 100 0
-95 98 99 0
-96 97 -100 0
96 -98 99 0
95 98 100 0
95 96 97 0
-12 -104 -108 0
-102 -106 -108 0
-12 -106 108 0
-104 -107 108 0
-103 -105 107 0
-102 105 106 0
-103 104 -107 0
103 -105 106 0
102 105 107 0
102 103 104 0
-13 -111 -115 0
-109 -113 -115 0
-13 -113 115 0
-111 -114 115 0
-110 -112 114 0
-109 112 113 0
-110 111 -114 0
110 -112 113 0
109 112 114 0
109 110 111 0
-14 -118 -122 0
-116 -120 -122 0
-14 -120 122 0
-118 -121 122 0
-117 -119 121 0
-116 119 120 0
-117 118 -121 0
117 -119 120 0
116 119 121 0
116 117 118 0
-15 -125 -129 0
-123 -127 -129 0
-15 -127 129 0
-125 -128 129 0
-124 -126 128 0
-123 126 127 0
-124 125 -128 0
124 -126 127 0
123 126 128 0
123 124 125 0
-16 -132 -136 0
-130 -134 -136 0
-16 -134 136 0
-132 -135 136 0
-131 -133 135 0
-130 133 134 0
-131 132 -135 0
131 -133 134 0
130 133 135 0
130 131 132 0
-17 -139 -143 0
-137 -141 -143 0
-17 -141 143 0
-139 -142 143 0
-138 -140 142 0
-137 140 141 0
-138 139 -142 0
138 -140 141 0
137 140 142 0
137 138 139 0
-18 -146 -150 0
-144 -148 -150 0
-18 -148 150 0
-146 -149 150 0
-145 -147 149 0
-144 147 148 0
-145 146 -149 0
145 -147 148 0
144 147 149 0
144 145 146 0
-19 -153 -157 0
-151 -155 -157 0
-19 -155 157 0
-153 -156 157 0
-152 -154 156 0
-151 154 155 0
-152 153 -156 0
152 -154 155 0
151 154 156 0
151 152 153 0
-20 -160 -164 0
-158 -162 -164 0
-20 -162 164 0
-160 -163 164 0
-159 -161 163 0
-158 161 162 0
-159 160 -163 0
159 -161 162 0
158 161 163 0
158 159 160 0
-21 -167 -171 0
-165 -169 -171 0
-21 -169 171 0
-167 -170 171 0
-166 -168 170 0
-165 168 169 0
-166 167 -170 0
166 -168 169 0
165 168 170 0
165 166 167 0
-22 -174 -178 0
-172 -176 -178 0
-22 -176 178 0
-174 -177 178 0
-173 -175 177 0
-172 175 176 0
-173 174 -177 0
173 -175 176 0
172 175 177 0
172 173 174 0
-23 -181 -185 0
-179 -183 -185 0
-23 -183 185 0
-181 -184 185 0
-180 -182 184 0
-179 182 183 0
-180 181 -184 0
180 -182 183 0
179 182 184 0
179 180 181 0
-24 -188 -192 0
-186 -190 -192 0
-24 -190 192 0
-188 -191 192 0
-187 -189 191 0
-186 189 190 0
-187 188 -191 0
187 -189 190 0
186 189 191 0
186 187 188 0
1 2 3 0
1 4 5 0
2 11 12 0
3 18 19 0
6 7 8 0
4 6 9 0
5 7 10 0
8 9 10 0
13 14 15 0
11 13 16 0
12 14 17 0
15 16 17 0
20 21 22 0
18 20 23 0
19 21 24 0
22 23 24 0
