c prism/enforcer connected amplifier s=3; beta=3
p cnf 72 96
-1 -12 -16 0
-10 -14 -16 0
-1 -14 16 0
-12 -15 16 0
-11 -13 15 0
-10 13 14 0
-11 12 -15 0
11 -13 14 0
10 13 15 0
10 11 12 0
-2 -19 -23 0
-17 -21 -23 0
-2 -21 23 0
-19 -22 23 0
-18 -20 22 0
-17 20 21 0
-18 19 -22 0
18 -20 21 0
17 20 22 0
17 18 19 0
-3 -26 -30 0
-24 -28 -30 0
-3 -28 30 0
-26 -29 30 0
-25 -27 29 0
-24 27 28 0
-25 26 -29 0
25 -27 28 0
24 27 29 0
24 25 26 0
-4 -33 -37 0
-31 -35 -37 0
-4 -35 37 0
-33 -36 37 0
-32 -34 36 0
-31 34 35 0
-32 33 -36 0
32 -34 35 0
31 34 36 0
31 32 33 0
-5 -40 -44 0
-38 -42 -44 0
-5 -42 44 0
-40 -43 44 0
-39 -41 43 0
-38 41 42 0
-39 40 -43 0
39 -41 42 0
38 41 43 0
38 39 40 0
-6 -47 -51 0
-45 -49 -51 0
-6 -49 51 0
-47 -50 51 0
-46 -48 50 0
-45 48 49 0
-46 47 -50 0
46 -48 49 0
45 48 50 0
45 46 47 0
-7 -54 -58 0
-52 -56 -58 0
-7 -56 58 0
-54 -57 58 0
-53 -55 57 0
-52 55 56 0
-53 54 -57 0
53 -55 56 0
52 55 57 0
52 53 54 0
-8 -61 -65 0
-59 -63 -65 0
-8 -63 65 0
-61 -64 65 0
-60 -62 64 0
-59 62 63 0
-60 61 -64 0
60 -62 63 0
59 62 64 0
59 60 61 0
-9 -68 -72 0
-66 -70 -72 0
-9 -70 72 0
-68 -71 72 0
-67 -69 71 0
-66 69 70 0
-67 68 -71 0
67 -69 70 0
66 69 71 0
66 67 68 0
1 3 7 0
1 2 8 0
2 3 9 0
4 6 7 0
4 5 8 0
5 6 9 0
